     Program PWSCF v.6.6 starts on 14Jan2021 at 18:30:52

     R & G space division:  proc/nbgrp/npool/nimage =      64
     Fft bands division:     nmany     =       1
     Waiting for input...
     Reading input from standard input

     Current dimensions of program PWSCF are:
     Max number of different atomic species (ntypx) = 10
     Max number of k-points (npk) =  40000
     Max angular momentum in pseudopotentials (lmaxx) =  3

     File ./CsSnI3.bfgs deleted, as requested
     file Cs.pbe-spn-kjpaw_psl.1.0.0.UPF: wavefunction(s)  5S 6S renormalized
     file Sn.pbe-dn-kjpaw_psl.1.0.0.UPF: wavefunction(s)  5S 5P 4D renormalized
     file I.pbe-n-kjpaw_psl.1.0.0.UPF: wavefunction(s)  5S renormalized

     Subspace diagonalization in iterative solution of the eigenvalue problem:
     a serial algorithm will be used

     Title:
     CsSnI3

     bravais-lattice index     =            8
     lattice parameter (alat)  =       9.1317  a.u.
     unit-cell volume          =    6370.5385 (a.u.)^3
     number of atoms/cell      =           20
     number of atomic types    =            3
     number of electrons       =       176.00
     number of Kohn-Sham states=           88
     kinetic-energy cutoff     =      70.0000  Ry
     charge density cutoff     =     420.0000  Ry
     convergence threshold     =      1.0E-07
     mixing beta               =       0.6000
     number of iterations used =            8  plain     mixing
     Exchange-correlation= SLA PW PBX PBC
                           (   1   4   3   4   0   0   0)
     nstep                     =           50

     celldm(1)=   9.131705  celldm(2)=   2.227728  celldm(3)=   3.755420
     celldm(4)=   0.000000  celldm(5)=   0.000000  celldm(6)=   0.000000

     crystal axes: (cart. coord. in units of alat)
               a(1) = (   1.000000   0.000000   0.000000 )
               a(2) = (   0.000000   2.227728   0.000000 )
               a(3) = (   0.000000   0.000000   3.755420 )

     reciprocal axes: (cart. coord. in units 2 pi/alat)
               b(1) = (  1.000000  0.000000  0.000000 )
               b(2) = (  0.000000  0.448888  0.000000 )
               b(3) = (  0.000000  0.000000  0.266282 )

     PseudoPot. # 1 for Cs read from file:
     /scratch/gtenti/degironcoli/pseudo/Cs.pbe-spn-kjpaw_psl.1.0.0.UPF
     MD5 check sum: b82c75cc2e1f4ff73b6412cffeb9c584
     Pseudo is Projector augmented-wave + core cor, Zval =  9.0
     Generated using "atomic" code by A. Dal Corso v.6.4.1
     Shape of augmentation charge: PSQ
     Using radial grid of 1251 points,  9 beta functions with:
                l(1) =   0
                l(2) =   0
                l(3) =   0
                l(4) =   1
                l(5) =   1
                l(6) =   2
                l(7) =   2
                l(8) =   3
                l(9) =   3
     Q(r) pseudized with 0 coefficients

     PseudoPot. # 2 for Sn read from file:
     /scratch/gtenti/degironcoli/pseudo/Sn.pbe-dn-kjpaw_psl.1.0.0.UPF
     MD5 check sum: 67f11dec737d427557dc41ea34975807
     Pseudo is Projector augmented-wave + core cor, Zval = 14.0
     Generated using "atomic" code by A. Dal Corso v.6.3
     Shape of augmentation charge: PSQ
     Using radial grid of 1243 points,  6 beta functions with:
                l(1) =   0
                l(2) =   0
                l(3) =   1
                l(4) =   1
                l(5) =   2
                l(6) =   2
     Q(r) pseudized with 0 coefficients

     PseudoPot. # 3 for I  read from file:
     /scratch/gtenti/degironcoli/pseudo/I.pbe-n-kjpaw_psl.1.0.0.UPF
     MD5 check sum: cd3d296c3308a581e1559a0c8a554cb5
     Pseudo is Projector augmented-wave + core cor, Zval =  7.0
     Generated using "atomic" code by A. Dal Corso v.6.3
     Shape of augmentation charge: PSQ
     Using radial grid of 1247 points,  6 beta functions with:
                l(1) =   0
                l(2) =   0
                l(3) =   1
                l(4) =   1
                l(5) =   2
                l(6) =   2
     Q(r) pseudized with 0 coefficients

     atomic species   valence    mass     pseudopotential
        Cs             9.00   132.90000     Cs( 1.00)
        Sn            14.00   118.70000     Sn( 1.00)
        I              7.00   126.90000     I ( 1.00)

      8 Sym. Ops., with inversion, found ( 6 have fractional translation)

                                    s                        frac. trans.

      isym =  1     identity

 cryst.   s( 1) = (     1          0          0      )
                  (     0          1          0      )
                  (     0          0          1      )

 cart.    s( 1) = (  1.0000000  0.0000000  0.0000000 )
                  (  0.0000000  1.0000000  0.0000000 )
                  (  0.0000000  0.0000000  1.0000000 )

      isym =  2     180 deg rotation - cart. axis [0,0,1]

 cryst.   s( 2) = (    -1          0          0      )    f =(  0.0000000 )
                  (     0         -1          0      )       (  0.5000000 )
                  (     0          0          1      )       (  0.5000000 )

 cart.    s( 2) = ( -1.0000000  0.0000000  0.0000000 )    f =(  0.0000000 )
                  (  0.0000000 -1.0000000  0.0000000 )       (  1.1138638 )
                  (  0.0000000  0.0000000  1.0000000 )       (  1.8777098 )

[...]

      isym =  5     inversion

[...]

      isym =  6     inv. 180 deg rotation - cart. axis [0,0,1]

[...]

     point group D_2h (mmm)
     there are  8 classes
     the character table:

       E     C2    C2'   C2''  i     s_v   s_v'  s_v''
A_g    1.00  1.00  1.00  1.00  1.00  1.00  1.00  1.00
B_1g   1.00  1.00 -1.00 -1.00  1.00  1.00 -1.00 -1.00
B_2g   1.00 -1.00  1.00 -1.00  1.00 -1.00  1.00 -1.00
B_3g   1.00 -1.00 -1.00  1.00  1.00 -1.00 -1.00  1.00
A_u    1.00  1.00  1.00  1.00 -1.00 -1.00 -1.00 -1.00
B_1u   1.00  1.00 -1.00 -1.00 -1.00 -1.00  1.00  1.00
B_2u   1.00 -1.00  1.00 -1.00 -1.00  1.00 -1.00  1.00
B_3u   1.00 -1.00 -1.00  1.00 -1.00  1.00  1.00 -1.00

     the symmetry operations in each class and the name of the first element:

     E        1
          identity
     C2       2
          180 deg rotation - cart. axis [0,0,1]
     C2'      4
          180 deg rotation - cart. axis [1,0,0]
     C2''     3
          180 deg rotation - cart. axis [0,1,0]
     i        5
          inversion
     s_v      6
          inv. 180 deg rotation - cart. axis [0,0,1]
     s_v'     8
          inv. 180 deg rotation - cart. axis [1,0,0]
     s_v''    7
          inv. 180 deg rotation - cart. axis [0,1,0]

   Cartesian axes

     site n.     atom                  positions (alat units)
         1           Cs  tau(   1) = (   0.2500000   0.1859640   2.5168147  )
         2           Cs  tau(   2) = (   0.7500000   2.0417636   1.2386050  )
         3           Cs  tau(   3) = (   0.2500000   1.2998278   3.1163149  )
         4           Cs  tau(   4) = (   0.7500000   0.9278998   0.6391048  )
         5           Sn  tau(   5) = (   0.2500000   0.7615710   1.6485466  )
         6           Sn  tau(   6) = (   0.7500000   1.4661567   2.1068731  )
         7           Sn  tau(   7) = (   0.2500000   1.8754348   0.2291632  )
         8           Sn  tau(   8) = (   0.7500000   0.3522928   3.5262565  )
         9           I   tau(   9) = (   0.7500000   0.0581437   0.4202578  )
        10           I   tau(  10) = (   0.2500000   2.1695839   3.3351619  )
        11           I   tau(  11) = (   0.7500000   1.1720075   1.4574521  )
        12           I   tau(  12) = (   0.2500000   1.0557201   2.2979676  )
        13           I   tau(  13) = (   0.7500000   0.6531118   2.9738192  )
        14           I   tau(  14) = (   0.2500000   1.5746158   0.7816005  )
        15           I   tau(  15) = (   0.7500000   1.7669756   2.6593103  )
        16           I   tau(  16) = (   0.2500000   0.4607520   1.0961094  )
        17           I   tau(  17) = (   0.7500000   0.3753632   1.8734812  )
        18           I   tau(  18) = (   0.2500000   1.8523644   1.8819384  )
        19           I   tau(  19) = (   0.7500000   1.4892270   0.0042286  )
        20           I   tau(  20) = (   0.2500000   0.7385006   3.7511911  )

   Crystallographic axes

     site n.     atom                  positions (cryst. coord.)
         1           Cs  tau(   1) = (  0.2500000  0.0834770  0.6701820  )
         2           Cs  tau(   2) = (  0.7500000  0.9165230  0.3298180  )
         3           Cs  tau(   3) = (  0.2500000  0.5834770  0.8298180  )
         4           Cs  tau(   4) = (  0.7500000  0.4165230  0.1701820  )
         5           Sn  tau(   5) = (  0.2500000  0.3418600  0.4389780  )
         6           Sn  tau(   6) = (  0.7500000  0.6581400  0.5610220  )
         7           Sn  tau(   7) = (  0.2500000  0.8418600  0.0610220  )
         8           Sn  tau(   8) = (  0.7500000  0.1581400  0.9389780  )
         9           I   tau(   9) = (  0.7500000  0.0261000  0.1119070  )
        10           I   tau(  10) = (  0.2500000  0.9739000  0.8880930  )
        11           I   tau(  11) = (  0.7500000  0.5261000  0.3880930  )
        12           I   tau(  12) = (  0.2500000  0.4739000  0.6119070  )
        13           I   tau(  13) = (  0.7500000  0.2931740  0.7918740  )
        14           I   tau(  14) = (  0.2500000  0.7068260  0.2081260  )
        15           I   tau(  15) = (  0.7500000  0.7931740  0.7081260  )
        16           I   tau(  16) = (  0.2500000  0.2068260  0.2918740  )
        17           I   tau(  17) = (  0.7500000  0.1684960  0.4988740  )
        18           I   tau(  18) = (  0.2500000  0.8315040  0.5011260  )
        19           I   tau(  19) = (  0.7500000  0.6684960  0.0011260  )
        20           I   tau(  20) = (  0.2500000  0.3315040  0.9988740  )

     number of k points=     8
                       cart. coord. in units 2pi/alat
        k(    1) = (   0.1666667   0.0748147   0.0443803), wk =   0.5925926
        k(    2) = (   0.1666667   0.0748147  -0.1331409), wk =   0.2962963
        k(    3) = (   0.1666667  -0.2244440   0.0443803), wk =   0.2962963
        k(    4) = (   0.1666667  -0.2244440  -0.1331409), wk =   0.1481481
        k(    5) = (  -0.5000000   0.0748147   0.0443803), wk =   0.2962963
        k(    6) = (  -0.5000000   0.0748147  -0.1331409), wk =   0.1481481
        k(    7) = (  -0.5000000  -0.2244440   0.0443803), wk =   0.1481481
        k(    8) = (  -0.5000000  -0.2244440  -0.1331409), wk =   0.0740741

                       cryst. coord.
        k(    1) = (   0.1666667   0.1666667   0.1666667), wk =   0.5925926
        k(    2) = (   0.1666667   0.1666667  -0.5000000), wk =   0.2962963
        k(    3) = (   0.1666667  -0.5000000   0.1666667), wk =   0.2962963
        k(    4) = (   0.1666667  -0.5000000  -0.5000000), wk =   0.1481481
        k(    5) = (  -0.5000000   0.1666667   0.1666667), wk =   0.2962963
        k(    6) = (  -0.5000000   0.1666667  -0.5000000), wk =   0.1481481
        k(    7) = (  -0.5000000  -0.5000000   0.1666667), wk =   0.1481481
        k(    8) = (  -0.5000000  -0.5000000  -0.5000000), wk =   0.0740741

     Initial potential from superposition of free atoms

[...]
     Starting wfcs are  104 randomized atomic wfcs
     Checking if some PAW data can be deallocated...

     Self-consistent Calculation

[...]

     total energy              =   -7979.66519348 Ry
     estimated scf accuracy    <          1.2E-09 Ry

     iteration # 18     ecut=    70.00 Ry     beta= 0.60
     Davidson diagonalization with overlap
     ethr =  6.64E-13,  avg # of iterations =  5.8

     End of self-consistent calculation

[...]

          k = 0.1668-0.2247-0.1333 ( 62752 PWs)   bands (ev):

[...]

          k =-0.5005-0.2247-0.1333 ( 62784 PWs)   bands (ev):

   -17.8299 -17.8299 -17.8299 -17.8299 -17.8274 -17.8274 -17.8274 -17.8274
   -17.8158 -17.8158 -17.8158 -17.8158 -17.8101 -17.8101 -17.8101 -17.8101
   -17.8068 -17.8068 -17.8068 -17.8068 -17.7328 -17.7328 -17.7328 -17.7328
    -8.4626  -8.4626  -8.4626  -8.4626  -8.2899  -8.2899  -8.2899  -8.2899
    -8.2571  -8.2571  -8.2571  -8.2571  -4.7194  -4.7194  -4.7194  -4.7194
    -4.5613  -4.5613  -4.5613  -4.5613  -4.5307  -4.5307  -4.5307  -4.5307
    -3.1592  -3.1592  -3.1592  -3.1592   0.2313   0.2313   0.2313   0.2313
     0.4559   0.4559   0.4559   0.4559   0.8904   0.8904   0.8904   0.8904
     1.3911   1.3911   1.3911   1.3911   1.7315   1.7315   1.7315   1.7315
     1.8258   1.8258   1.8258   1.8258   1.9685   1.9685   1.9685   1.9685
     2.1379   2.1379   2.1379   2.1379   2.9150   2.9150   2.9150   2.9150

     occupation numbers
     1.0000   1.0000   1.0000   1.0000   1.0000   1.0000   1.0000   1.0000
     1.0000   1.0000   1.0000   1.0000   1.0000   1.0000   1.0000   1.0000
     1.0000   1.0000   1.0000   1.0000   1.0000   1.0000   1.0000   1.0000
     1.0000   1.0000   1.0000   1.0000   1.0000   1.0000   1.0000   1.0000
     1.0000   1.0000   1.0000   1.0000   1.0000   1.0000   1.0000   1.0000
     1.0000   1.0000   1.0000   1.0000   1.0000   1.0000   1.0000   1.0000
     1.0000   1.0000   1.0000   1.0000   1.0000   1.0000   1.0000   1.0000
     1.0000   1.0000   1.0000   1.0000   1.0000   1.0000   1.0000   1.0000
     1.0000   1.0000   1.0000   1.0000   1.0000   1.0000   1.0000   1.0000
     1.0000   1.0000   1.0000   1.0000   1.0000   1.0000   1.0000   1.0000
     1.0000   1.0000   1.0000   1.0000   1.0000   1.0000   1.0000   1.0000

     highest occupied level (ev):     3.0444

!    total energy              =   -7979.66519348 Ry

     total all-electron energy =   -282510.819906 Ry
     estimated scf accuracy    <          9.0E-11 Ry

     The total energy is the sum of the following terms:
     one-electron contribution =    -462.16288484 Ry
     hartree contribution      =     316.06840323 Ry
     xc contribution           =    -465.91459077 Ry
     ewald contribution        =    -634.52004080 Ry
     one-center paw contrib.   =   -6733.13608030 Ry
      -> PAW hartree energy AE =      25.63651974 Ry
      -> PAW hartree energy PS =     -25.52695206 Ry
      -> PAW xc energy AE      =    -383.53071047 Ry
      -> PAW xc energy PS      =      20.51532446 Ry
      -> total E_H with PAW    =     316.17797091 Ry
      -> total E_XC with PAW   =    -828.92997678 Ry

     convergence has been achieved in  18 iterations

     Forces acting on atoms (cartesian axes, Ry/au):

     atom    1 type  1   force =     0.00000000   -0.00056448    0.00036719
     atom    2 type  1   force =     0.00000000    0.00056448   -0.00036719
     atom    3 type  1   force =     0.00000000   -0.00056448   -0.00036719
     atom    4 type  1   force =     0.00000000    0.00056448    0.00036719
     atom    5 type  2   force =     0.00000000   -0.00039874    0.00037391
     atom    6 type  2   force =     0.00000000    0.00039874   -0.00037391
     atom    7 type  2   force =     0.00000000   -0.00039874   -0.00037391
     atom    8 type  2   force =     0.00000000    0.00039874    0.00037391
     atom    9 type  3   force =     0.00000000    0.00009042   -0.00005174
     atom   10 type  3   force =     0.00000000   -0.00009042    0.00005174
     atom   11 type  3   force =     0.00000000    0.00009042    0.00005174
     atom   12 type  3   force =     0.00000000   -0.00009042   -0.00005174
     atom   13 type  3   force =     0.00000000    0.00006518   -0.00070700
     atom   14 type  3   force =     0.00000000   -0.00006518    0.00070700
     atom   15 type  3   force =     0.00000000    0.00006518    0.00070700
     atom   16 type  3   force =     0.00000000   -0.00006518   -0.00070700
     atom   17 type  3   force =     0.00000000   -0.00067853    0.00039974
     atom   18 type  3   force =     0.00000000    0.00067853   -0.00039974
     atom   19 type  3   force =     0.00000000   -0.00067853   -0.00039974
     atom   20 type  3   force =     0.00000000    0.00067853    0.00039974
     The non-local contrib.  to forces
     atom    1 type  1   force =     0.00000000    0.00228586   -0.00236353
     atom    2 type  1   force =     0.00000000   -0.00228586    0.00236353
     atom    3 type  1   force =     0.00000000    0.00228586    0.00236353
     atom    4 type  1   force =     0.00000000   -0.00228586   -0.00236353
     atom    5 type  2   force =     0.00000000   -0.08674313   -0.13133190
     atom    6 type  2   force =     0.00000000    0.08674313    0.13133190
     atom    7 type  2   force =    -0.00000000   -0.08674313    0.13133190
     atom    8 type  2   force =     0.00000000    0.08674313   -0.13133190
     atom    9 type  3   force =     0.00000000   -0.04563357   -0.04596890
     atom   10 type  3   force =    -0.00000000    0.04563357    0.04596890
     atom   11 type  3   force =     0.00000000   -0.04563357    0.04596890
     atom   12 type  3   force =     0.00000000    0.04563357   -0.04596890
     atom   13 type  3   force =    -0.00000000   -0.03254410    0.05562228
     atom   14 type  3   force =     0.00000000    0.03254410   -0.05562228
     atom   15 type  3   force =     0.00000000   -0.03254410   -0.05562228
     atom   16 type  3   force =     0.00000000    0.03254410    0.05562228
     atom   17 type  3   force =     0.00000000    0.05265337   -0.01527144
     atom   18 type  3   force =     0.00000000   -0.05265337    0.01527144
     atom   19 type  3   force =     0.00000000    0.05265337    0.01527144
     atom   20 type  3   force =     0.00000000   -0.05265337   -0.01527144
     The ionic contribution  to forces
     atom    1 type  1   force =     0.00000000    0.03096746    0.43230427
     atom    2 type  1   force =    -0.00000000   -0.03096746   -0.43230427
     atom    3 type  1   force =     0.00000000    0.03096746   -0.43230427
     atom    4 type  1   force =    -0.00000000   -0.03096746    0.43230427
     atom    5 type  2   force =     0.00000000   -2.44031745   -1.60484578
     atom    6 type  2   force =    -0.00000000    2.44031745    1.60484578
     atom    7 type  2   force =     0.00000000   -2.44031745    1.60484578
     atom    8 type  2   force =    -0.00000000    2.44031745   -1.60484578
     atom    9 type  3   force =    -0.00000000    3.00008448    5.13755655
     atom   10 type  3   force =     0.00000000   -3.00008448   -5.13755655
     atom   11 type  3   force =    -0.00000000    3.00008448   -5.13755655
     atom   12 type  3   force =     0.00000000   -3.00008448    5.13755655
     atom   13 type  3   force =    -0.00000000    2.01351198   -3.75515810
     atom   14 type  3   force =     0.00000000   -2.01351198    3.75515810
     atom   15 type  3   force =    -0.00000000    2.01351198    3.75515810
     atom   16 type  3   force =     0.00000000   -2.01351198   -3.75515810
     atom   17 type  3   force =    -0.00000000   -4.20260901    2.10932964
     atom   18 type  3   force =     0.00000000    4.20260901   -2.10932964
     atom   19 type  3   force =    -0.00000000   -4.20260901   -2.10932964
     atom   20 type  3   force =     0.00000000    4.20260901    2.10932964
     The local contribution  to forces
     atom    1 type  1   force =    -0.00000000   -0.03363193   -0.42977521
     atom    2 type  1   force =    -0.00000000    0.03363193    0.42977521
     atom    3 type  1   force =    -0.00000000   -0.03363193    0.42977521
     atom    4 type  1   force =    -0.00000000    0.03363193   -0.42977521
     atom    5 type  2   force =    -0.00000000    2.52655233    1.73646457
     atom    6 type  2   force =    -0.00000000   -2.52655233   -1.73646457
     atom    7 type  2   force =    -0.00000000    2.52655233   -1.73646457
     atom    8 type  2   force =    -0.00000000   -2.52655233    1.73646457
     atom    9 type  3   force =    -0.00000000   -2.96040491   -5.09797245
     atom   10 type  3   force =    -0.00000000    2.96040491    5.09797245
     atom   11 type  3   force =    -0.00000000   -2.96040491    5.09797245
     atom   12 type  3   force =    -0.00000000    2.96040491   -5.09797245
     atom   13 type  3   force =    -0.00000000   -1.98520336    3.70625266
     atom   14 type  3   force =    -0.00000000    1.98520336   -3.70625266
     atom   15 type  3   force =    -0.00000000   -1.98520336   -3.70625266
     atom   16 type  3   force =    -0.00000000    1.98520336    3.70625266
     atom   17 type  3   force =    -0.00000000    4.15649092   -2.09595330
     atom   18 type  3   force =    -0.00000000   -4.15649092    2.09595330
     atom   19 type  3   force =    -0.00000000    4.15649092    2.09595330
     atom   20 type  3   force =    -0.00000000   -4.15649092   -2.09595330
     The core correction contribution to forces
     atom    1 type  1   force =     0.00000000   -0.00018489    0.00020219
     atom    2 type  1   force =     0.00000000    0.00018489   -0.00020219
     atom    3 type  1   force =     0.00000000   -0.00018489   -0.00020219
     atom    4 type  1   force =     0.00000000    0.00018489    0.00020219
     atom    5 type  2   force =    -0.00000000    0.00012344    0.00009392
     atom    6 type  2   force =    -0.00000000   -0.00012344   -0.00009392
     atom    7 type  2   force =    -0.00000000    0.00012344   -0.00009392
     atom    8 type  2   force =    -0.00000000   -0.00012344    0.00009392
     atom    9 type  3   force =     0.00000000    0.00604266    0.00632691
     atom   10 type  3   force =     0.00000000   -0.00604266   -0.00632691
     atom   11 type  3   force =     0.00000000    0.00604266   -0.00632691
     atom   12 type  3   force =     0.00000000   -0.00604266    0.00632691
     atom   13 type  3   force =     0.00000000    0.00429898   -0.00742206
     atom   14 type  3   force =     0.00000000   -0.00429898    0.00742206
     atom   15 type  3   force =     0.00000000    0.00429898    0.00742206
     atom   16 type  3   force =     0.00000000   -0.00429898   -0.00742206
     atom   17 type  3   force =     0.00000000   -0.00720799    0.00229392
     atom   18 type  3   force =    -0.00000000    0.00720799   -0.00229392
     atom   19 type  3   force =     0.00000000   -0.00720799   -0.00229392
     atom   20 type  3   force =     0.00000000    0.00720799    0.00229392
     The Hubbard contrib.    to forces
     atom    1 type  1   force =     0.00000000    0.00000000    0.00000000
     atom    2 type  1   force =     0.00000000    0.00000000    0.00000000
     atom    3 type  1   force =     0.00000000    0.00000000    0.00000000
     atom    4 type  1   force =     0.00000000    0.00000000    0.00000000
     atom    5 type  2   force =     0.00000000    0.00000000    0.00000000
     atom    6 type  2   force =     0.00000000    0.00000000    0.00000000
     atom    7 type  2   force =     0.00000000    0.00000000    0.00000000
     atom    8 type  2   force =     0.00000000    0.00000000    0.00000000
     atom    9 type  3   force =     0.00000000    0.00000000    0.00000000
     atom   10 type  3   force =     0.00000000    0.00000000    0.00000000
     atom   11 type  3   force =     0.00000000    0.00000000    0.00000000
     atom   12 type  3   force =     0.00000000    0.00000000    0.00000000
     atom   13 type  3   force =     0.00000000    0.00000000    0.00000000
     atom   14 type  3   force =     0.00000000    0.00000000    0.00000000
     atom   15 type  3   force =     0.00000000    0.00000000    0.00000000
     atom   16 type  3   force =     0.00000000    0.00000000    0.00000000
     atom   17 type  3   force =     0.00000000    0.00000000    0.00000000
     atom   18 type  3   force =     0.00000000    0.00000000    0.00000000
     atom   19 type  3   force =     0.00000000    0.00000000    0.00000000
     atom   20 type  3   force =     0.00000000    0.00000000    0.00000000
     The SCF correction term to forces
     atom    1 type  1   force =    -0.00000000   -0.00000098   -0.00000052
     atom    2 type  1   force =     0.00000000    0.00000098    0.00000052
     atom    3 type  1   force =    -0.00000000   -0.00000098    0.00000052
     atom    4 type  1   force =     0.00000000    0.00000098   -0.00000052
     atom    5 type  2   force =     0.00000000   -0.00001393   -0.00000691
     atom    6 type  2   force =     0.00000000    0.00001393    0.00000691
     atom    7 type  2   force =     0.00000000   -0.00001393    0.00000691
     atom    8 type  2   force =    -0.00000000    0.00001393   -0.00000691
     atom    9 type  3   force =    -0.00000000    0.00000176    0.00000615
     atom   10 type  3   force =     0.00000000   -0.00000176   -0.00000615
     atom   11 type  3   force =    -0.00000000    0.00000176   -0.00000615
     atom   12 type  3   force =     0.00000000   -0.00000176    0.00000615
     atom   13 type  3   force =    -0.00000000    0.00000168   -0.00000178
     atom   14 type  3   force =     0.00000000   -0.00000168    0.00000178
     atom   15 type  3   force =    -0.00000000    0.00000168    0.00000178
     atom   16 type  3   force =    -0.00000000   -0.00000168   -0.00000178
     atom   17 type  3   force =    -0.00000000   -0.00000582    0.00000092
     atom   18 type  3   force =    -0.00000000    0.00000582   -0.00000092
     atom   19 type  3   force =     0.00000000   -0.00000582   -0.00000092
     atom   20 type  3   force =    -0.00000000    0.00000582    0.00000092

     Total force =     0.002748     Total SCF correction =     0.000036

     Computing stress (Cartesian axis) and pressure

          total   stress  (Ry/bohr**3)                   (kbar)     P=       -0.28
  -0.00000111   0.00000000   0.00000000           -0.16        0.00        0.00
   0.00000000  -0.00000236   0.00000000            0.00       -0.35        0.00
   0.00000000   0.00000000  -0.00000226            0.00        0.00       -0.33

     kinetic stress (kbar)   5542.72      0.00      0.00
                                0.00   5555.69      0.00
                                0.00      0.00   5549.07

     local   stress (kbar)  -4514.72     -0.00     -0.00
                               -0.00  -1888.94      0.00
                               -0.00      0.00   -984.28

     nonloc. stress (kbar)   1145.15      0.00      0.00
                                0.00   1144.81      0.00
                                0.00      0.00   1147.13

     hartree stress (kbar)   3407.62     -0.00      0.00
                               -0.00   2196.34      0.00
                                0.00      0.00   1721.11

     exc-cor stress (kbar)   5466.40     -0.00     -0.00
                               -0.00   5466.09      0.00
                               -0.00      0.00   5466.51

     corecor stress (kbar)  -7238.42     -0.00     -0.00
                               -0.00  -7238.92      0.00
                               -0.00      0.00  -7238.85

     ewald   stress (kbar)  -3808.91      0.00      0.00
                                0.00  -5235.41     -0.00
                                0.00     -0.00  -5661.04

     hubbard stress (kbar)      0.00      0.00      0.00
                                0.00      0.00      0.00
                                0.00      0.00      0.00

     DFT-D   stress (kbar)      0.00      0.00      0.00
                                0.00      0.00      0.00
                                0.00      0.00      0.00

     XDM     stress (kbar)      0.00      0.00      0.00
                                0.00      0.00      0.00
                                0.00      0.00      0.00

     dft-nl  stress (kbar)      0.00      0.00      0.00
                                0.00      0.00      0.00
                                0.00      0.00      0.00

     TS-vdW  stress (kbar)      0.00      0.00      0.00
                                0.00      0.00      0.00
                                0.00      0.00      0.00

     Writing output data file ./CsSnI3.save/

     General routines

     Parallel routines

     PAW routines

   This run was terminated on:  18:58:35  14Jan2021

   JOB DONE.