     Program PWSCF v.6.4.1 starts on 23Jan2021 at 10:34:18

     R & G space division:  proc/nbgrp/npool/nimage =      24
     Waiting for input...
     Reading input from standard input

     Current dimensions of program PWSCF are:
     Max number of different atomic species (ntypx) = 10
     Max number of k-points (npk) =  40000
     Max angular momentum in pseudopotentials (lmaxx) =  3
               file Cs.rel-pbesol-spn-kjpaw_psl.1.0.0.UPF: wavefunction(s)  5S 6S renormalized
               file Sn.rel-pbesol-dn-kjpaw_psl.1.0.0.UPF: wavefunction(s)  5S 5P 5P 4D 4D renormalized
               file I.rel-pbesol-n-kjpaw_psl.1.0.0.UPF: wavefunction(s)  5S renormalized

     Title:
     CsSnI3

     bravais-lattice index     =            8
     lattice parameter (alat)  =       9.1317  a.u.
     unit-cell volume          =    6370.5385 (a.u.)^3
     number of atoms/cell      =           20
     number of atomic types    =            3
     number of electrons       =       176.00
     number of Kohn-Sham states=          176
     kinetic-energy cutoff     =     100.0000  Ry
     charge density cutoff     =     600.0000  Ry
     convergence threshold     =      1.0E-06
     mixing beta               =       0.3500
     number of iterations used =            8  plain     mixing
     Exchange-correlation      = SLA PW PSX PSC ( 1  4 10  8 0 0)
     Non magnetic calculation with spin-orbit

     celldm(1)=   9.131705  celldm(2)=   2.227728  celldm(3)=   3.755420
     celldm(4)=   0.000000  celldm(5)=   0.000000  celldm(6)=   0.000000

     crystal axes: (cart. coord. in units of alat)
               a(1) = (   1.000000   0.000000   0.000000 )
               a(2) = (   0.000000   2.227728   0.000000 )
               a(3) = (   0.000000   0.000000   3.755420 )

     reciprocal axes: (cart. coord. in units 2 pi/alat)
               b(1) = (  1.000000  0.000000  0.000000 )
               b(2) = (  0.000000  0.448888  0.000000 )
               b(3) = (  0.000000  0.000000  0.266282 )

     PseudoPot. # 1 for Cs read from file:
     /marconi_scratch/userexternal/cmalosso/degironcoli/pseudo/Cs.rel-pbesol-spn-kjpaw_psl.1.0.0.UPF
     MD5 check sum: 2adfb289dd462649b099d7edbec69378
     Pseudo is Projector augmented-wave + core cor, Zval =  9.0
     Generated using "atomic" code by A. Dal Corso v.6.4.1
     Shape of augmentation charge: PSQ
     Using radial grid of 1251 points, 15 beta functions with:
                l(1) =   0
                l(2) =   0
                l(3) =   0
                l(4) =   1
                l(5) =   1
                l(6) =   1
                l(7) =   1
                l(8) =   2
                l(9) =   2
               l(10) =   2
               l(11) =   2
               l(12) =   3
               l(13) =   3
               l(14) =   3
               l(15) =   3
     Q(r) pseudized with 0 coefficients

     PseudoPot. # 2 for Sn read from file:
     /marconi_scratch/userexternal/cmalosso/degironcoli/pseudo/Sn.rel-pbesol-dn-kjpaw_psl.1.0.0.UPF
     MD5 check sum: e69eff64f15ae39ad43ef58bacbfdf88
     Pseudo is Projector augmented-wave + core cor, Zval = 14.0
     Generated using "atomic" code by A. Dal Corso v.6.3
     Shape of augmentation charge: PSQ
     Using radial grid of 1243 points, 10 beta functions with:
                l(1) =   0
                l(2) =   0
                l(3) =   1
                l(4) =   1
                l(5) =   1
                l(6) =   1
                l(7) =   2
                l(8) =   2
                l(9) =   2
               l(10) =   2
     Q(r) pseudized with 0 coefficients

     PseudoPot. # 3 for I  read from file:
     /marconi_scratch/userexternal/cmalosso/degironcoli/pseudo/I.rel-pbesol-n-kjpaw_psl.1.0.0.UPF
     MD5 check sum: 4478c427bd443f303eca1937a163b991
     Pseudo is Projector augmented-wave + core cor, Zval =  7.0
     Generated using "atomic" code by A. Dal Corso v.6.3
     Shape of augmentation charge: PSQ
     Using radial grid of 1247 points, 10 beta functions with:
                l(1) =   0
                l(2) =   0
                l(3) =   1
                l(4) =   1
                l(5) =   1
                l(6) =   1
                l(7) =   2
                l(8) =   2
                l(9) =   2
               l(10) =   2
     Q(r) pseudized with 0 coefficients

     atomic species   valence    mass     pseudopotential
        Cs             9.00   132.90000     Cs( 1.00)
        Sn            14.00   118.70000     Sn( 1.00)
        I              7.00   126.90000     I ( 1.00)

      8 Sym. Ops., with inversion, found ( 6 have fractional translation)

                                    s                        frac. trans.

      isym =  1     identity

 cryst.   s( 1) = (     1          0          0      )
                  (     0          1          0      )
                  (     0          0          1      )

 cart.    s( 1) = (  1.0000000  0.0000000  0.0000000 )
                  (  0.0000000  1.0000000  0.0000000 )
                  (  0.0000000  0.0000000  1.0000000 )

      isym =  2     180 deg rotation - cart. axis [0,0,1]

 cryst.   s( 2) = (    -1          0          0      )    f =(  0.0000000 )
                  (     0         -1          0      )       (  0.5000000 )
                  (     0          0          1      )       (  0.5000000 )

 cart.    s( 2) = ( -1.0000000  0.0000000  0.0000000 )    f =(  0.0000000 )
                  (  0.0000000 -1.0000000  0.0000000 )       (  1.1138638 )
                  (  0.0000000  0.0000000  1.0000000 )       (  1.8777098 )

[...]

      isym =  4     180 deg rotation - cart. axis [1,0,0]

[...]

      isym =  5     inversion

 cryst.   s( 5) = (    -1          0          0      )
                  (     0         -1          0      )
                  (     0          0         -1      )

 cart.    s( 5) = ( -1.0000000  0.0000000  0.0000000 )
                  (  0.0000000 -1.0000000  0.0000000 )
                  (  0.0000000  0.0000000 -1.0000000 )

      isym =  6     inv. 180 deg rotation - cart. axis [0,0,1]

[...]

      isym =  8     inv. 180 deg rotation - cart. axis [1,0,0]

 cryst.   s( 8) = (    -1          0          0      )    f =(  0.5000000 )
                  (     0          1          0      )       (  0.0000000 )
                  (     0          0          1      )       (  0.0000000 )

 cart.    s( 8) = ( -1.0000000  0.0000000  0.0000000 )    f =(  0.5000000 )
                  (  0.0000000  1.0000000  0.0000000 )       (  0.0000000 )
                  (  0.0000000  0.0000000  1.0000000 )       (  0.0000000 )

     double point group D_2h (mmm)
     there are 10 classes and  2 irreducible representations
     the character table:

       E     -E     C2    C2'  C2''  i     -i     s_v   s_v' s_v''
                   -C2   -C2'  -C2''             -s_v  -s_v' -s_v'
G_5+   2.00 -2.00  0.00  0.00  0.00  2.00 -2.00  0.00  0.00  0.00
G_5-   2.00 -2.00  0.00  0.00  0.00 -2.00  2.00  0.00  0.00  0.00

     the symmetry operations in each class and the name of the first element:

     E             1
          identity
     -E           -1
          identity E
      C2  -C2      2   -2
          180 deg rotation - cart. axis [0,0,1]
      C2' -C2'     4   -4
          180 deg rotation - cart. axis [1,0,0]
     C2'' -C2''    3   -3
          180 deg rotation - cart. axis [0,1,0]
     i             5
          inversion
     -i           -5
          inversion E
      s_v -s_v     6   -6
          inv. 180 deg rotation - cart. axis [0,0,1]
      s_v'-s_v'    8   -8
          inv. 180 deg rotation - cart. axis [1,0,0]
     s_v''-s_v'    7   -7
          inv. 180 deg rotation - cart. axis [0,1,0]

   Cartesian axes

     site n.     atom                  positions (alat units)
         1           Cs  tau(   1) = (   0.2500000   0.1859640   2.5168147  )
         2           Cs  tau(   2) = (   0.7500000   2.0417636   1.2386050  )
         3           Cs  tau(   3) = (   0.2500000   1.2998278   3.1163149  )
         4           Cs  tau(   4) = (   0.7500000   0.9278998   0.6391048  )
         5           Sn  tau(   5) = (   0.2500000   0.7615710   1.6485466  )
         6           Sn  tau(   6) = (   0.7500000   1.4661567   2.1068731  )
         7           Sn  tau(   7) = (   0.2500000   1.8754348   0.2291632  )
         8           Sn  tau(   8) = (   0.7500000   0.3522928   3.5262565  )
         9           I   tau(   9) = (   0.7500000   0.0581437   0.4202578  )
        10           I   tau(  10) = (   0.2500000   2.1695839   3.3351619  )
        11           I   tau(  11) = (   0.7500000   1.1720075   1.4574521  )
        12           I   tau(  12) = (   0.2500000   1.0557201   2.2979676  )
        13           I   tau(  13) = (   0.7500000   0.6531118   2.9738192  )
        14           I   tau(  14) = (   0.2500000   1.5746158   0.7816005  )
        15           I   tau(  15) = (   0.7500000   1.7669756   2.6593103  )
        16           I   tau(  16) = (   0.2500000   0.4607520   1.0961094  )
        17           I   tau(  17) = (   0.7500000   0.3753632   1.8734812  )
        18           I   tau(  18) = (   0.2500000   1.8523644   1.8819384  )
        19           I   tau(  19) = (   0.7500000   1.4892270   0.0042286  )
        20           I   tau(  20) = (   0.2500000   0.7385006   3.7511911  )

   Crystallographic axes

     site n.     atom                  positions (cryst. coord.)
         1           Cs  tau(   1) = (  0.2500000  0.0834770  0.6701820  )
         2           Cs  tau(   2) = (  0.7500000  0.9165230  0.3298180  )
         3           Cs  tau(   3) = (  0.2500000  0.5834770  0.8298180  )
         4           Cs  tau(   4) = (  0.7500000  0.4165230  0.1701820  )
         5           Sn  tau(   5) = (  0.2500000  0.3418600  0.4389780  )
         6           Sn  tau(   6) = (  0.7500000  0.6581400  0.5610220  )
         7           Sn  tau(   7) = (  0.2500000  0.8418600  0.0610220  )
         8           Sn  tau(   8) = (  0.7500000  0.1581400  0.9389780  )
         9           I   tau(   9) = (  0.7500000  0.0261000  0.1119070  )
        10           I   tau(  10) = (  0.2500000  0.9739000  0.8880930  )
        11           I   tau(  11) = (  0.7500000  0.5261000  0.3880930  )
        12           I   tau(  12) = (  0.2500000  0.4739000  0.6119070  )
        13           I   tau(  13) = (  0.7500000  0.2931740  0.7918740  )
        14           I   tau(  14) = (  0.2500000  0.7068260  0.2081260  )
        15           I   tau(  15) = (  0.7500000  0.7931740  0.7081260  )
        16           I   tau(  16) = (  0.2500000  0.2068260  0.2918740  )
        17           I   tau(  17) = (  0.7500000  0.1684960  0.4988740  )
        18           I   tau(  18) = (  0.2500000  0.8315040  0.5011260  )
        19           I   tau(  19) = (  0.7500000  0.6684960  0.0011260  )
        20           I   tau(  20) = (  0.2500000  0.3315040  0.9988740  )

     number of k points=     1
                       cart. coord. in units 2pi/alat
        k(    1) = (   0.2500000   0.1122220   0.0665705), wk =   1.0000000

                       cryst. coord.
        k(    1) = (   0.2500000   0.2500000   0.2500000), wk =   1.0000000

     Initial potential from superposition of free atoms

     starting charge  175.84163, renormalised to  176.00000
     Starting wfcs are  208 randomized atomic wfcs
     Checking if some PAW data can be deallocated...

     Self-consistent Calculation

     iteration #  1     ecut=   100.00 Ry     beta= 0.35
     Davidson diagonalization with overlap
     ethr =  1.00E-02,  avg # of iterations =  1.0

     Threshold (ethr) on eigenvalues was too large:
     Diagonalizing with lowered threshold

     Davidson diagonalization with overlap
     ethr =  3.18E-04,  avg # of iterations = 13.0

     negative rho (up, down):  1.888E+03 0.000E+00

     total energy              =  -11205.12331577 Ry
     Harris-Foulkes estimate   =   -7900.75382798 Ry
     estimated scf accuracy    < 6200022.70606661 Ry

[...]

     total energy              = -173803.82160150 Ry
     Harris-Foulkes estimate   = -173803.82147606 Ry
     estimated scf accuracy    <       0.00001601 Ry

     iteration # 39     ecut=   100.00 Ry     beta= 0.35
     Davidson diagonalization with overlap
     ethr =  3.48E-09,  avg # of iterations =  4.0

[...]

     End of self-consistent calculation

          k = 0.2500 0.1122 0.0666 (107585 PWs)   bands (ev):

     occupation numbers
     1.0000   1.0000   1.0000   1.0000   1.0000   1.0000   1.0000   1.0000
     1.0000   1.0000   1.0000   1.0000   1.0000   1.0000   1.0000   1.0000
     1.0000   1.0000   1.0000   1.0000   1.0000   1.0000   1.0000   1.0000
     1.0000   1.0000   1.0000   1.0000   1.0000   1.0000   1.0000   1.0000
     1.0000   1.0000   1.0000   1.0000   1.0000   1.0000   1.0000   1.0000
     1.0000   1.0000   1.0000   1.0000   1.0000   1.0000   1.0000   1.0000
     1.0000   1.0000   1.0000   1.0000   1.0000   1.0000   1.0000   1.0000
     1.0000   1.0000   1.0000   1.0000   1.0000   1.0000   1.0000   1.0000
     1.0000   1.0000   1.0000   1.0000   1.0000   1.0000   1.0000   1.0000
     1.0000   1.0000   1.0000   1.0000   1.0000   1.0000   1.0000   1.0000
     1.0000   1.0000   1.0000   1.0000   1.0000   1.0000   1.0000   1.0000
     1.0000   1.0000   1.0000   1.0000   1.0000   1.0000   1.0000   1.0000
     1.0000   1.0000   1.0000   1.0000   1.0000   1.0000   1.0000   1.0000
     1.0000   1.0000   1.0000   1.0000   1.0000   1.0000   1.0000   1.0000
     1.0000   1.0000   1.0000   1.0000   1.0000   1.0000   1.0000   1.0000
     1.0000   1.0000   1.0000   1.0000   1.0000   1.0000   1.0000   1.0000
     1.0000   1.0000   1.0000   1.0000   1.0000   1.0000   1.0000   1.0000
     1.0000   1.0000   1.0000   1.0000   1.0000   1.0000   1.0000   1.0000
     1.0000   1.0000   1.0000   1.0000   1.0000   1.0000   1.0000   1.0000
     1.0000   1.0000   1.0000   1.0000   1.0000   1.0000   1.0000   1.0000
     1.0000   1.0000   1.0000   1.0000   1.0000   1.0000   1.0000   1.0000
     1.0000   1.0000   1.0000   1.0000   1.0000   1.0000   1.0000   1.0000

     highest occupied level (ev): -3457.7631

!    total energy              = -173803.82160507 Ry
     Harris-Foulkes estimate   = -173803.82160399 Ry
     estimated scf accuracy    <          6.6E-09 Ry

     total all-electron energy =   -448417.922144 Ry

     The total energy is the sum of the following terms:

     one-electron contribution =    8675.72610656 Ry
     hartree contribution      = 8317544.05031896 Ry
     xc contribution           =   -6821.77529159 Ry
     ewald contribution        =    -633.56960162 Ry
     one-center paw contrib.   =-8492568.25313738 Ry
      -> PAW hartree energy AE =  670415.90665697 Ry
      -> PAW hartree energy PS =-2792942.87585607 Ry
      -> PAW xc energy AE      =   -6806.93672601 Ry
      -> PAW xc energy PS      =    7488.05609327 Ry
      -> total E_H with PAW    = 6195017.08111986 Ry
      -> total E_XC with PAW   =   -6140.65592433 Ry

     convergence has been achieved in  39 iterations

     negative rho (up, down):  6.218E+03 0.000E+00

     Forces acting on atoms (cartesian axes, Ry/au):

     atom    1 type  1   force =     0.00000000  404.09723450 -429.65647424
     atom    2 type  1   force =     0.00000000 -404.09723450  429.65647424
     atom    3 type  1   force =     0.00000000  404.09723450  429.65647424
     atom    4 type  1   force =     0.00000000 -404.09723450 -429.65647424
     atom    5 type  2   force =     0.00000000  -11.66250413   -9.86549551
     atom    6 type  2   force =     0.00000000   11.66250413    9.86549551
     atom    7 type  2   force =     0.00000000  -11.66250413    9.86549551
     atom    8 type  2   force =     0.00000000   11.66250413   -9.86549551
     atom    9 type  3   force =     0.00000000    5.27886263   16.70488742
     atom   10 type  3   force =     0.00000000   -5.27886263  -16.70488742
     atom   11 type  3   force =     0.00000000    5.27886263  -16.70488742
     atom   12 type  3   force =     0.00000000   -5.27886263   16.70488742
     atom   13 type  3   force =     0.00000000    5.44493874   -9.32619371
     atom   14 type  3   force =     0.00000000   -5.44493874    9.32619371
     atom   15 type  3   force =     0.00000000    5.44493874    9.32619371
     atom   16 type  3   force =     0.00000000   -5.44493874   -9.32619371
     atom   17 type  3   force =     0.00000000  -12.48023646    5.07484587
     atom   18 type  3   force =     0.00000000   12.48023646   -5.07484587
     atom   19 type  3   force =     0.00000000  -12.48023646   -5.07484587
     atom   20 type  3   force =     0.00000000   12.48023646    5.07484587
     The non-local contrib.  to forces
     atom    1 type  1   force =     0.00000000-1058.76520077 1744.63260509
     atom    2 type  1   force =    -0.00000000 1058.76520077-1744.63260509
     atom    3 type  1   force =     0.00000000-1058.76520077-1744.63260509
     atom    4 type  1   force =     0.00000000 1058.76520077 1744.63260509
     atom    5 type  2   force =     0.00000000    0.00014386   -0.00016022
     atom    6 type  2   force =     0.00000000   -0.00014386    0.00016022
     atom    7 type  2   force =     0.00000000    0.00014386    0.00016022
     atom    8 type  2   force =    -0.00000000   -0.00014386   -0.00016022
     atom    9 type  3   force =     0.00000000    0.00012973   -0.00022085
     atom   10 type  3   force =    -0.00000000   -0.00012973    0.00022085
     atom   11 type  3   force =     0.00000000    0.00012973    0.00022085
     atom   12 type  3   force =     0.00000000   -0.00012973   -0.00022085
     atom   13 type  3   force =     0.00000000   -0.00001290   -0.00003238
     atom   14 type  3   force =     0.00000000    0.00001290    0.00003238
     atom   15 type  3   force =     0.00000000   -0.00001290    0.00003238
     atom   16 type  3   force =     0.00000000    0.00001290   -0.00003238
     atom   17 type  3   force =     0.00000000    0.00006642    0.00002166
     atom   18 type  3   force =     0.00000000   -0.00006642   -0.00002166
     atom   19 type  3   force =     0.00000000    0.00006642   -0.00002166
     atom   20 type  3   force =     0.00000000   -0.00006642    0.00002166
     The ionic contribution  to forces
     atom    1 type  1   force =     0.00000000    0.02273773    0.42856976
     atom    2 type  1   force =    -0.00000000   -0.02273773   -0.42856976
     atom    3 type  1   force =     0.00000000    0.02273773   -0.42856976
     atom    4 type  1   force =    -0.00000000   -0.02273773    0.42856976
     atom    5 type  2   force =    -0.00000000   -2.44382133   -1.60292982
     atom    6 type  2   force =     0.00000000    2.44382133    1.60292982
     atom    7 type  2   force =    -0.00000000   -2.44382133    1.60292982
     atom    8 type  2   force =     0.00000000    2.44382133   -1.60292982
     atom    9 type  3   force =    -0.00000000    3.00608889    5.13288889
     atom   10 type  3   force =    -0.00000000   -3.00608889   -5.13288889
     atom   11 type  3   force =    -0.00000000    3.00608889   -5.13288889
     atom   12 type  3   force =    -0.00000000   -3.00608889    5.13288889
     atom   13 type  3   force =     0.00000000    2.02422847   -3.75281495
     atom   14 type  3   force =     0.00000000   -2.02422847    3.75281495
     atom   15 type  3   force =    -0.00000000    2.02422847    3.75281495
     atom   16 type  3   force =     0.00000000   -2.02422847   -3.75281495
     atom   17 type  3   force =     0.00000000   -4.20564469    2.10270402
     atom   18 type  3   force =    -0.00000000    4.20564469   -2.10270402
     atom   19 type  3   force =     0.00000000   -4.20564469   -2.10270402
     atom   20 type  3   force =    -0.00000000    4.20564469    2.10270402
     The local contribution  to forces
     atom    1 type  1   force =    -0.00000000 1461.93548234-2173.29809873
     atom    2 type  1   force =     0.00000000-1461.93548234 2173.29809873
     atom    3 type  1   force =    -0.00000000 1461.93548234 2173.29809873
     atom    4 type  1   force =     0.00000000-1461.93548234-2173.29809873
     atom    5 type  2   force =     0.00000000   -9.21832173   -8.26204543
     atom    6 type  2   force =    -0.00000000    9.21832173    8.26204543
     atom    7 type  2   force =     0.00000000   -9.21832173    8.26204543
     atom    8 type  2   force =     0.00000000    9.21832173   -8.26204543
     atom    9 type  3   force =     0.00000000    2.27230426   11.56999151
     atom   10 type  3   force =    -0.00000000   -2.27230426  -11.56999151
     atom   11 type  3   force =     0.00000000    2.27230426  -11.56999151
     atom   12 type  3   force =    -0.00000000   -2.27230426   11.56999151
     atom   13 type  3   force =     0.00000000    3.42006658   -5.57220514
     atom   14 type  3   force =    -0.00000000   -3.42006658    5.57220514
     atom   15 type  3   force =    -0.00000000    3.42006658    5.57220514
     atom   16 type  3   force =     0.00000000   -3.42006658   -5.57220514
     atom   17 type  3   force =    -0.00000000   -8.27341078    2.97164783
     atom   18 type  3   force =     0.00000000    8.27341078   -2.97164783
     atom   19 type  3   force =     0.00000000   -8.27341078   -2.97164783
     atom   20 type  3   force =    -0.00000000    8.27341078    2.97164783
     The core correction contribution to forces
     atom    1 type  1   force =    -0.00000000    0.90423704   -1.41953898
     atom    2 type  1   force =    -0.00000000   -0.90423704    1.41953898
     atom    3 type  1   force =    -0.00000000    0.90423704    1.41953898
     atom    4 type  1   force =    -0.00000000   -0.90423704   -1.41953898
     atom    5 type  2   force =    -0.00000000   -0.00050182   -0.00035941
     atom    6 type  2   force =    -0.00000000    0.00050182    0.00035941
     atom    7 type  2   force =     0.00000000   -0.00050182    0.00035941
     atom    8 type  2   force =    -0.00000000    0.00050182   -0.00035941
     atom    9 type  3   force =     0.00000000    0.00033971    0.00222859
     atom   10 type  3   force =     0.00000000   -0.00033971   -0.00222859
     atom   11 type  3   force =    -0.00000000    0.00033971   -0.00222859
     atom   12 type  3   force =    -0.00000000   -0.00033971    0.00222859
     atom   13 type  3   force =    -0.00000000    0.00065336   -0.00114304
     atom   14 type  3   force =    -0.00000000   -0.00065336    0.00114304
     atom   15 type  3   force =    -0.00000000    0.00065336    0.00114304
     atom   16 type  3   force =    -0.00000000   -0.00065336   -0.00114304
     atom   17 type  3   force =     0.00000000   -0.00124669    0.00047360
     atom   18 type  3   force =     0.00000000    0.00124669   -0.00047360
     atom   19 type  3   force =     0.00000000   -0.00124669   -0.00047360
     atom   20 type  3   force =     0.00000000    0.00124669    0.00047360
     The Hubbard contrib.    to forces
     atom    1 type  1   force =     0.00000000    0.00000000    0.00000000
     atom    2 type  1   force =     0.00000000    0.00000000    0.00000000
     atom    3 type  1   force =     0.00000000    0.00000000    0.00000000
     atom    4 type  1   force =     0.00000000    0.00000000    0.00000000
     atom    5 type  2   force =     0.00000000    0.00000000    0.00000000
     atom    6 type  2   force =     0.00000000    0.00000000    0.00000000
     atom    7 type  2   force =     0.00000000    0.00000000    0.00000000
     atom    8 type  2   force =     0.00000000    0.00000000    0.00000000
     atom    9 type  3   force =     0.00000000    0.00000000    0.00000000
     atom   10 type  3   force =     0.00000000    0.00000000    0.00000000
     atom   11 type  3   force =     0.00000000    0.00000000    0.00000000
     atom   12 type  3   force =     0.00000000    0.00000000    0.00000000
     atom   13 type  3   force =     0.00000000    0.00000000    0.00000000
     atom   14 type  3   force =     0.00000000    0.00000000    0.00000000
     atom   15 type  3   force =     0.00000000    0.00000000    0.00000000
     atom   16 type  3   force =     0.00000000    0.00000000    0.00000000
     atom   17 type  3   force =     0.00000000    0.00000000    0.00000000
     atom   18 type  3   force =     0.00000000    0.00000000    0.00000000
     atom   19 type  3   force =     0.00000000    0.00000000    0.00000000
     atom   20 type  3   force =     0.00000000    0.00000000    0.00000000
     The SCF correction term to forces
     atom    1 type  1   force =     0.00000000   -0.00002184   -0.00001138
     atom    2 type  1   force =     0.00000000    0.00002184    0.00001138
     atom    3 type  1   force =     0.00000000   -0.00002184    0.00001138
     atom    4 type  1   force =     0.00000000    0.00002184   -0.00001138
     atom    5 type  2   force =     0.00000000   -0.00000311   -0.00000063
     atom    6 type  2   force =     0.00000000    0.00000311    0.00000063
     atom    7 type  2   force =     0.00000000   -0.00000311    0.00000063
     atom    8 type  2   force =     0.00000000    0.00000311   -0.00000063
     atom    9 type  3   force =    -0.00000000    0.00000004   -0.00000072
     atom   10 type  3   force =    -0.00000000   -0.00000004    0.00000072
     atom   11 type  3   force =    -0.00000000    0.00000004    0.00000072
     atom   12 type  3   force =    -0.00000000   -0.00000004   -0.00000072
     atom   13 type  3   force =     0.00000000    0.00000323    0.00000181
     atom   14 type  3   force =     0.00000000   -0.00000323   -0.00000181
     atom   15 type  3   force =     0.00000000    0.00000323   -0.00000181
     atom   16 type  3   force =     0.00000000   -0.00000323    0.00000181
     atom   17 type  3   force =    -0.00000000   -0.00000071   -0.00000124
     atom   18 type  3   force =    -0.00000000    0.00000071    0.00000124
     atom   19 type  3   force =    -0.00000000   -0.00000071    0.00000124
     atom   20 type  3   force =    -0.00000000    0.00000071   -0.00000124

     Total force =  1181.080282     Total SCF correction =     0.000050

     Computing stress (Cartesian axis) and pressure

     Message from routine stres:
     noncollinear stress + GGA not implemented

     Writing output data file CsSnI3.save/

     General routines

     Parallel routines

     PAW routines

   This run was terminated on:  11:38:44  23Jan2021

   JOB DONE.