     Program PWSCF v.6.7MaX starts on 15Jan2021 at 11: 1:28

     R & G space division:  proc/nbgrp/npool/nimage =      32
     Waiting for input...
     Reading input from standard input

     Current dimensions of program PWSCF are:
     Max number of different atomic species (ntypx) = 10
     Max number of k-points (npk) =  40000
     Max angular momentum in pseudopotentials (lmaxx) =  3
     file Sn.pbe-dn-kjpaw_psl.1.0.0.UPF: wavefunction(s)  5S 5P 4D renormalized
     file I.pbe-n-kjpaw_psl.1.0.0.UPF: wavefunction(s)  5S renormalized
     file Cs.pbe-spn-kjpaw_psl.1.0.0.UPF: wavefunction(s)  5S 6S renormalized

     Subspace diagonalization in iterative solution of the eigenvalue problem:
     a serial algorithm will be used

     Message from routine setup:
     using ibrav=0 with symmetry is DISCOURAGED, use correct ibrav instead

     Title:
     CsSnI3

     bravais-lattice index     =            0
     lattice parameter (alat)  =       9.1317  a.u.
     unit-cell volume          =    6370.5385 (a.u.)^3
     number of atoms/cell      =           20
     number of atomic types    =            3
     number of electrons       =       176.00
     number of Kohn-Sham states=           89
     kinetic-energy cutoff     =      50.0000  Ry
     charge density cutoff     =     200.0000  Ry
     scf convergence threshold =      1.0E-06
     mixing beta               =       0.7000
     number of iterations used =            8  plain     mixing
     Exchange-correlation= SLA  PW   PBX  PBC
                           (   1   4   3   4   0   0   0)

     celldm(1)=   9.131705  celldm(2)=   0.000000  celldm(3)=   0.000000
     celldm(4)=   0.000000  celldm(5)=   0.000000  celldm(6)=   0.000000

     crystal axes: (cart. coord. in units of alat)
               a(1) = (   1.000000   0.000000   0.000000 )
               a(2) = (   0.000000   2.227728   0.000000 )
               a(3) = (   0.000000   0.000000   3.755420 )

     reciprocal axes: (cart. coord. in units 2 pi/alat)
               b(1) = (  1.000000  0.000000  0.000000 )
               b(2) = (  0.000000  0.448888  0.000000 )
               b(3) = (  0.000000  0.000000  0.266282 )

     PseudoPot. # 1 for Sn read from file:
     ../../../pseudo/Sn.pbe-dn-kjpaw_psl.1.0.0.UPF
     MD5 check sum: 67f11dec737d427557dc41ea34975807
     Pseudo is Projector augmented-wave + core cor, Zval = 14.0
     Generated using &quot;atomic&quot; code by A. Dal Corso  v.6.3
     Shape of augmentation charge: PSQ
     Using radial grid of 1243 points,  6 beta functions with:
                l(1) =   0
                l(2) =   0
                l(3) =   1
                l(4) =   1
                l(5) =   2
                l(6) =   2
     Q(r) pseudized with 0 coefficients

     PseudoPot. # 2 for I  read from file:
     ../../../pseudo/I.pbe-n-kjpaw_psl.1.0.0.UPF
     MD5 check sum: cd3d296c3308a581e1559a0c8a554cb5
     Pseudo is Projector augmented-wave + core cor, Zval =  7.0
     Generated using &quot;atomic&quot; code by A. Dal Corso  v.6.3
     Shape of augmentation charge: PSQ
     Using radial grid of 1247 points,  6 beta functions with:
                l(1) =   0
                l(2) =   0
                l(3) =   1
                l(4) =   1
                l(5) =   2
                l(6) =   2
     Q(r) pseudized with 0 coefficients

     PseudoPot. # 3 for Cs read from file:
     ../../../pseudo/Cs.pbe-spn-kjpaw_psl.1.0.0.UPF
     MD5 check sum: b82c75cc2e1f4ff73b6412cffeb9c584
     Pseudo is Projector augmented-wave + core cor, Zval =  9.0
     Generated using &quot;atomic&quot; code by A. Dal Corso  v.6.4.1
     Shape of augmentation charge: PSQ
     Using radial grid of 1251 points,  9 beta functions with:
                l(1) =   0
                l(2) =   0
                l(3) =   0
                l(4) =   1
                l(5) =   1
                l(6) =   2
                l(7) =   2
                l(8) =   3
                l(9) =   3
     Q(r) pseudized with 0 coefficients

     atomic species   valence    mass     pseudopotential
        Sn            14.00   118.70000     Sn( 1.00)
        I              7.00   126.90000     I ( 1.00)
        Cs             9.00   132.90000     Cs( 1.00)

      8 Sym. Ops., with inversion, found ( 6 have fractional translation)

                                    s                        frac. trans.

      isym =  1     identity

 cryst.   s( 1) = (     1          0          0      )
                  (     0          1          0      )
                  (     0          0          1      )

 cart.    s( 1) = (  1.0000000  0.0000000  0.0000000 )
                  (  0.0000000  1.0000000  0.0000000 )
                  (  0.0000000  0.0000000  1.0000000 )

      isym =  2     180 deg rotation - cart. axis [0,0,1]

 cryst.   s( 2) = (    -1          0          0      )    f =(  0.0000000 )
                  (     0         -1          0      )       (  0.5000000 )
                  (     0          0          1      )       (  0.5000000 )

 cart.    s( 2) = ( -1.0000000  0.0000000  0.0000000 )    f =(  0.0000000 )
                  (  0.0000000 -1.0000000  0.0000000 )       (  1.1138638 )
                  (  0.0000000  0.0000000  1.0000000 )       (  1.8777098 )

[...]

      isym =  4     180 deg rotation - cart. axis [1,0,0]

[...]

      isym =  5     inversion

 cryst.   s( 5) = (    -1          0          0      )
                  (     0         -1          0      )
                  (     0          0         -1      )

 cart.    s( 5) = ( -1.0000000  0.0000000  0.0000000 )
                  (  0.0000000 -1.0000000  0.0000000 )
                  (  0.0000000  0.0000000 -1.0000000 )

      isym =  6     inv. 180 deg rotation - cart. axis [0,0,1]

[...]

      isym =  8     inv. 180 deg rotation - cart. axis [1,0,0]

 cryst.   s( 8) = (    -1          0          0      )    f =(  0.5000000 )
                  (     0          1          0      )       (  0.0000000 )
                  (     0          0          1      )       (  0.0000000 )

 cart.    s( 8) = ( -1.0000000  0.0000000  0.0000000 )    f =(  0.5000000 )
                  (  0.0000000  1.0000000  0.0000000 )       (  0.0000000 )
                  (  0.0000000  0.0000000  1.0000000 )       (  0.0000000 )

   Cartesian axes

     site n.     atom                  positions (alat units)
         1           Cs  tau(   1) = (   0.2500000   0.1859640   2.5168147  )
         2           Cs  tau(   2) = (   0.7500000   2.0417636   1.2386050  )
         3           Cs  tau(   3) = (   0.2500000   1.2998278   3.1163149  )
         4           Cs  tau(   4) = (   0.7500000   0.9278998   0.6391048  )
         5           Sn  tau(   5) = (   0.2500000   0.7615710   1.6485466  )
         6           Sn  tau(   6) = (   0.7500000   1.4661567   2.1068731  )
         7           Sn  tau(   7) = (   0.2500000   1.8754348   0.2291632  )
         8           Sn  tau(   8) = (   0.7500000   0.3522928   3.5262565  )
         9           I   tau(   9) = (   0.7500000   0.0581437   0.4202578  )
        10           I   tau(  10) = (   0.2500000   2.1695839   3.3351619  )
        11           I   tau(  11) = (   0.7500000   1.1720075   1.4574521  )
        12           I   tau(  12) = (   0.2500000   1.0557201   2.2979676  )
        13           I   tau(  13) = (   0.7500000   0.6531118   2.9738192  )
        14           I   tau(  14) = (   0.2500000   1.5746158   0.7816005  )
        15           I   tau(  15) = (   0.7500000   1.7669756   2.6593103  )
        16           I   tau(  16) = (   0.2500000   0.4607520   1.0961094  )
        17           I   tau(  17) = (   0.7500000   0.3753632   1.8734812  )
        18           I   tau(  18) = (   0.2500000   1.8523644   1.8819384  )
        19           I   tau(  19) = (   0.7500000   1.4892270   0.0042286  )
        20           I   tau(  20) = (   0.2500000   0.7385006   3.7511911  )

   Crystallographic axes

     site n.     atom                  positions (cryst. coord.)
         1           Cs  tau(   1) = (  0.2500000  0.0834770  0.6701820  )
         2           Cs  tau(   2) = (  0.7500000  0.9165230  0.3298180  )
         3           Cs  tau(   3) = (  0.2500000  0.5834770  0.8298180  )
         4           Cs  tau(   4) = (  0.7500000  0.4165230  0.1701820  )
         5           Sn  tau(   5) = (  0.2500000  0.3418600  0.4389780  )
         6           Sn  tau(   6) = (  0.7500000  0.6581400  0.5610220  )
         7           Sn  tau(   7) = (  0.2500000  0.8418600  0.0610220  )
         8           Sn  tau(   8) = (  0.7500000  0.1581400  0.9389780  )
         9           I   tau(   9) = (  0.7500000  0.0261000  0.1119070  )
        10           I   tau(  10) = (  0.2500000  0.9739000  0.8880930  )
        11           I   tau(  11) = (  0.7500000  0.5261000  0.3880930  )
        12           I   tau(  12) = (  0.2500000  0.4739000  0.6119070  )
        13           I   tau(  13) = (  0.7500000  0.2931740  0.7918740  )
        14           I   tau(  14) = (  0.2500000  0.7068260  0.2081260  )
        15           I   tau(  15) = (  0.7500000  0.7931740  0.7081260  )
        16           I   tau(  16) = (  0.2500000  0.2068260  0.2918740  )
        17           I   tau(  17) = (  0.7500000  0.1684960  0.4988740  )
        18           I   tau(  18) = (  0.2500000  0.8315040  0.5011260  )
        19           I   tau(  19) = (  0.7500000  0.6684960  0.0011260  )
        20           I   tau(  20) = (  0.2500000  0.3315040  0.9988740  )

     number of k points=    27
                       cart. coord. in units 2pi/alat
        k(    1) = (   0.0000000   0.0000000   0.0000000), wk =   0.0312500
        k(    2) = (   0.0000000   0.0000000   0.0665705), wk =   0.0625000
        k(    3) = (   0.0000000   0.0000000  -0.1331409), wk =   0.0312500
        k(    4) = (   0.0000000   0.1122220   0.0000000), wk =   0.0625000
        k(    5) = (   0.0000000   0.1122220   0.0665705), wk =   0.1250000
        k(    6) = (   0.0000000   0.1122220  -0.1331409), wk =   0.0625000
        k(    7) = (   0.0000000  -0.2244440   0.0000000), wk =   0.0312500
        k(    8) = (   0.0000000  -0.2244440   0.0665705), wk =   0.0625000
        k(    9) = (   0.0000000  -0.2244440  -0.1331409), wk =   0.0312500
        k(   10) = (   0.2500000   0.0000000   0.0000000), wk =   0.0625000
        k(   11) = (   0.2500000   0.0000000   0.0665705), wk =   0.1250000
        k(   12) = (   0.2500000   0.0000000  -0.1331409), wk =   0.0625000
        k(   13) = (   0.2500000   0.1122220   0.0000000), wk =   0.1250000
        k(   14) = (   0.2500000   0.1122220   0.0665705), wk =   0.2500000
        k(   15) = (   0.2500000   0.1122220  -0.1331409), wk =   0.1250000
        k(   16) = (   0.2500000  -0.2244440   0.0000000), wk =   0.0625000
        k(   17) = (   0.2500000  -0.2244440   0.0665705), wk =   0.1250000
        k(   18) = (   0.2500000  -0.2244440  -0.1331409), wk =   0.0625000
        k(   19) = (  -0.5000000   0.0000000   0.0000000), wk =   0.0312500
        k(   20) = (  -0.5000000   0.0000000   0.0665705), wk =   0.0625000
[...]
     1.0000   1.0000   1.0000   1.0000   1.0000   1.0000   1.0000   1.0000
     1.0000   1.0000   1.0000   1.0000   1.0000   1.0000   1.0000   1.0000
     1.0000   1.0000   1.0000   1.0000   1.0000   1.0000   1.0000   1.0000
     0.0000

[...]

          k = 0.2500-0.2244-0.1331 ( 38000 PWs)   bands (ev):

[...]

          k =-0.5000 0.0000 0.0000 ( 38048 PWs)   bands (ev):

[...]

          k =-0.5000-0.2244-0.1331 ( 38056 PWs)   bands (ev):

   -17.8658 -17.8658 -17.8658 -17.8658 -17.8645 -17.8645 -17.8645 -17.8645
   -17.8532 -17.8532 -17.8532 -17.8532 -17.8451 -17.8451 -17.8451 -17.8451
   -17.8418 -17.8418 -17.8418 -17.8418 -17.7706 -17.7706 -17.7706 -17.7706
    -8.4861  -8.4861  -8.4861  -8.4861  -8.3107  -8.3107  -8.3107  -8.3107
    -8.2825  -8.2825  -8.2825  -8.2825  -4.7549  -4.7549  -4.7549  -4.7549
    -4.5972  -4.5972  -4.5972  -4.5972  -4.5673  -4.5673  -4.5673  -4.5673
    -3.1856  -3.1856  -3.1856  -3.1856   0.2130   0.2130   0.2130   0.2130
     0.4371   0.4371   0.4371   0.4371   0.8669   0.8669   0.8669   0.8669
     1.3690   1.3690   1.3690   1.3690   1.7074   1.7074   1.7074   1.7074
     1.7989   1.7989   1.7989   1.7989   1.9427   1.9427   1.9427   1.9427
     2.1110   2.1110   2.1110   2.1110   2.8815   2.8815   2.8815   2.8815
     6.1176

     occupation numbers
     1.0000   1.0000   1.0000   1.0000   1.0000   1.0000   1.0000   1.0000
     1.0000   1.0000   1.0000   1.0000   1.0000   1.0000   1.0000   1.0000
     1.0000   1.0000   1.0000   1.0000   1.0000   1.0000   1.0000   1.0000
     1.0000   1.0000   1.0000   1.0000   1.0000   1.0000   1.0000   1.0000
     1.0000   1.0000   1.0000   1.0000   1.0000   1.0000   1.0000   1.0000
     1.0000   1.0000   1.0000   1.0000   1.0000   1.0000   1.0000   1.0000
     1.0000   1.0000   1.0000   1.0000   1.0000   1.0000   1.0000   1.0000
     1.0000   1.0000   1.0000   1.0000   1.0000   1.0000   1.0000   1.0000
     1.0000   1.0000   1.0000   1.0000   1.0000   1.0000   1.0000   1.0000
     1.0000   1.0000   1.0000   1.0000   1.0000   1.0000   1.0000   1.0000
     1.0000   1.0000   1.0000   1.0000   1.0000   1.0000   1.0000   1.0000
     0.0000

     highest occupied, lowest unoccupied level (ev):     3.0295    5.1336

!    total energy              =   -7979.62662577 Ry

     total all-electron energy =   -282510.781338 Ry
     estimated scf accuracy    <       0.00000005 Ry

     The total energy is the sum of the following terms:
     one-electron contribution =    -463.62720049 Ry
     hartree contribution      =     316.58303629 Ry
     xc contribution           =    -465.89111443 Ry
     ewald contribution        =    -633.56960439 Ry
     one-center paw contrib.   =   -6733.12174274 Ry
      -> PAW hartree energy AE =      25.63885752 Ry
      -> PAW hartree energy PS =     -25.52931035 Ry
      -> PAW xc energy AE      =    -383.53089009 Ry
      -> PAW xc energy PS      =      20.51557142 Ry
      -> total E_H with PAW    =     316.69258345 Ry
      -> total E_XC with PAW   =    -828.90643311 Ry

     convergence has been achieved in  12 iterations

     Forces acting on atoms (cartesian axes, Ry/au):

     atom    1 type  3   force =     0.00000000   -0.00063395    0.00033675
     atom    2 type  3   force =     0.00000000    0.00063395   -0.00033675
     atom    3 type  3   force =     0.00000000   -0.00063395   -0.00033675
     atom    4 type  3   force =     0.00000000    0.00063395    0.00033675
     atom    5 type  1   force =     0.00000000   -0.00070352    0.00024522
     atom    6 type  1   force =    -0.00000000    0.00070352   -0.00024522
     atom    7 type  1   force =     0.00000000   -0.00070352   -0.00024522
     atom    8 type  1   force =    -0.00000000    0.00070352    0.00024522
     atom    9 type  2   force =     0.00000000    0.00019559   -0.00016822
     atom   10 type  2   force =     0.00000000   -0.00019559    0.00016822
     atom   11 type  2   force =     0.00000000    0.00019559    0.00016822
     atom   12 type  2   force =     0.00000000   -0.00019559   -0.00016822
     atom   13 type  2   force =     0.00000000   -0.00013341   -0.00045048
     atom   14 type  2   force =     0.00000000    0.00013341    0.00045048
     atom   15 type  2   force =     0.00000000   -0.00013341    0.00045048
     atom   16 type  2   force =     0.00000000    0.00013341   -0.00045048
     atom   17 type  2   force =     0.00000000   -0.00075468    0.00047468
     atom   18 type  2   force =     0.00000000    0.00075468   -0.00047468
     atom   19 type  2   force =     0.00000000   -0.00075468   -0.00047468
     atom   20 type  2   force =     0.00000000    0.00075468    0.00047468
     The non-local contrib.  to forces
     atom    1 type  3   force =     0.00000000    0.00220667   -0.00227348
     atom    2 type  3   force =     0.00000000   -0.00220667    0.00227348
     atom    3 type  3   force =     0.00000000    0.00220667    0.00227348
     atom    4 type  3   force =     0.00000000   -0.00220667   -0.00227348
     atom    5 type  1   force =     0.00000000   -0.08732575   -0.13163612
     atom    6 type  1   force =     0.00000000    0.08732575    0.13163612
     atom    7 type  1   force =     0.00000000   -0.08732575    0.13163612
     atom    8 type  1   force =     0.00000000    0.08732575   -0.13163612
     atom    9 type  2   force =     0.00000000   -0.04888393   -0.04762013
     atom   10 type  2   force =     0.00000000    0.04888393    0.04762013
     atom   11 type  2   force =     0.00000000   -0.04888393    0.04762013
     atom   12 type  2   force =     0.00000000    0.04888393   -0.04762013
     atom   13 type  2   force =     0.00000000   -0.03281582    0.05558706
     atom   14 type  2   force =     0.00000000    0.03281582   -0.05558706
     atom   15 type  2   force =     0.00000000   -0.03281582   -0.05558706
     atom   16 type  2   force =     0.00000000    0.03281582    0.05558706
     atom   17 type  2   force =     0.00000000    0.05613361   -0.01686332
     atom   18 type  2   force =     0.00000000   -0.05613361    0.01686332
     atom   19 type  2   force =     0.00000000    0.05613361    0.01686332
     atom   20 type  2   force =     0.00000000   -0.05613361   -0.01686332
     The ionic contribution  to forces
     atom    1 type  3   force =    -0.00000000    0.02273773    0.42856976
     atom    2 type  3   force =    -0.00000000   -0.02273773   -0.42856976
     atom    3 type  3   force =    -0.00000000    0.02273773   -0.42856976
     atom    4 type  3   force =    -0.00000000   -0.02273773    0.42856976
     atom    5 type  1   force =    -0.00000000   -2.44382135   -1.60292983
     atom    6 type  1   force =     0.00000000    2.44382135    1.60292983
     atom    7 type  1   force =    -0.00000000   -2.44382135    1.60292983
     atom    8 type  1   force =     0.00000000    2.44382135   -1.60292983
     atom    9 type  2   force =    -0.00000000    3.00608891    5.13288893
     atom   10 type  2   force =     0.00000000   -3.00608891   -5.13288893
     atom   11 type  2   force =    -0.00000000    3.00608891   -5.13288893
     atom   12 type  2   force =    -0.00000000   -3.00608891    5.13288893
     atom   13 type  2   force =     0.00000000    2.02422849   -3.75281499
     atom   14 type  2   force =     0.00000000   -2.02422849    3.75281499
     atom   15 type  2   force =    -0.00000000    2.02422849    3.75281499
     atom   16 type  2   force =    -0.00000000   -2.02422849   -3.75281499
     atom   17 type  2   force =    -0.00000000   -4.20564473    2.10270404
     atom   18 type  2   force =     0.00000000    4.20564473   -2.10270404
     atom   19 type  2   force =    -0.00000000   -4.20564473   -2.10270404
     atom   20 type  2   force =     0.00000000    4.20564473    2.10270404
     The local contribution  to forces
     atom    1 type  3   force =    -0.00000000   -0.02545791   -0.42619009
     atom    2 type  3   force =     0.00000000    0.02545791    0.42619009
     atom    3 type  3   force =    -0.00000000   -0.02545791    0.42619009
     atom    4 type  3   force =     0.00000000    0.02545791   -0.42619009
     atom    5 type  1   force =    -0.00000000    2.52995675    1.73467150
     atom    6 type  1   force =    -0.00000000   -2.52995675   -1.73467150
     atom    7 type  1   force =    -0.00000000    2.52995675   -1.73467150
     atom    8 type  1   force =    -0.00000000   -2.52995675    1.73467150
     atom    9 type  2   force =    -0.00000000   -2.96351304   -5.09194512
     atom   10 type  2   force =     0.00000000    2.96351304    5.09194512
     atom   11 type  2   force =    -0.00000000   -2.96351304    5.09194512
     atom   12 type  2   force =     0.00000000    2.96351304   -5.09194512
     atom   13 type  2   force =    -0.00000000   -1.99585208    3.70424200
     atom   14 type  2   force =     0.00000000    1.99585208   -3.70424200
     atom   15 type  2   force =    -0.00000000   -1.99585208   -3.70424200
     atom   16 type  2   force =     0.00000000    1.99585208    3.70424200
     atom   17 type  2   force =    -0.00000000    4.15635872   -2.08791572
     atom   18 type  2   force =     0.00000000   -4.15635872    2.08791572
     atom   19 type  2   force =     0.00000000    4.15635872    2.08791572
     atom   20 type  2   force =     0.00000000   -4.15635872   -2.08791572
     The core correction contribution to forces
     atom    1 type  3   force =     0.00000000   -0.00018051    0.00019071
     atom    2 type  3   force =     0.00000000    0.00018051   -0.00019071
     atom    3 type  3   force =     0.00000000   -0.00018051   -0.00019071
     atom    4 type  3   force =     0.00000000    0.00018051    0.00019071
     atom    5 type  1   force =    -0.00000000    0.00019263    0.00006475
     atom    6 type  1   force =    -0.00000000   -0.00019263   -0.00006475
     atom    7 type  1   force =     0.00000000    0.00019263   -0.00006475
     atom    8 type  1   force =    -0.00000000   -0.00019263    0.00006475
     atom    9 type  2   force =     0.00000000    0.00650770    0.00656398
     atom   10 type  2   force =    -0.00000000   -0.00650770   -0.00656398
     atom   11 type  2   force =     0.00000000    0.00650770   -0.00656398
     atom   12 type  2   force =     0.00000000   -0.00650770    0.00656398
     atom   13 type  2   force =    -0.00000000    0.00433305   -0.00741535
     atom   14 type  2   force =    -0.00000000   -0.00433305    0.00741535
     atom   15 type  2   force =     0.00000000    0.00433305    0.00741535
     atom   16 type  2   force =     0.00000000   -0.00433305   -0.00741535
     atom   17 type  2   force =     0.00000000   -0.00770563    0.00252191
     atom   18 type  2   force =     0.00000000    0.00770563   -0.00252191
     atom   19 type  2   force =    -0.00000000   -0.00770563   -0.00252191
     atom   20 type  2   force =     0.00000000    0.00770563    0.00252191
     The Hubbard contrib.    to forces
     atom    1 type  3   force =     0.00000000    0.00000000    0.00000000
     atom    2 type  3   force =     0.00000000    0.00000000    0.00000000
     atom    3 type  3   force =     0.00000000    0.00000000    0.00000000
     atom    4 type  3   force =     0.00000000    0.00000000    0.00000000
     atom    5 type  1   force =     0.00000000    0.00000000    0.00000000
     atom    6 type  1   force =     0.00000000    0.00000000    0.00000000
     atom    7 type  1   force =     0.00000000    0.00000000    0.00000000
     atom    8 type  1   force =     0.00000000    0.00000000    0.00000000
     atom    9 type  2   force =     0.00000000    0.00000000    0.00000000
     atom   10 type  2   force =     0.00000000    0.00000000    0.00000000
     atom   11 type  2   force =     0.00000000    0.00000000    0.00000000
     atom   12 type  2   force =     0.00000000    0.00000000    0.00000000
     atom   13 type  2   force =     0.00000000    0.00000000    0.00000000
     atom   14 type  2   force =     0.00000000    0.00000000    0.00000000
     atom   15 type  2   force =     0.00000000    0.00000000    0.00000000
     atom   16 type  2   force =     0.00000000    0.00000000    0.00000000
     atom   17 type  2   force =     0.00000000    0.00000000    0.00000000
     atom   18 type  2   force =     0.00000000    0.00000000    0.00000000
     atom   19 type  2   force =     0.00000000    0.00000000    0.00000000
     atom   20 type  2   force =     0.00000000    0.00000000    0.00000000
     The SCF correction term to forces
     atom    1 type  3   force =    -0.00000000    0.00006007    0.00003985
     atom    2 type  3   force =     0.00000000   -0.00006007   -0.00003985
     atom    3 type  3   force =    -0.00000000    0.00006007   -0.00003985
     atom    4 type  3   force =     0.00000000   -0.00006007    0.00003985
     atom    5 type  1   force =    -0.00000000    0.00029421    0.00007493
     atom    6 type  1   force =    -0.00000000   -0.00029421   -0.00007493
     atom    7 type  1   force =    -0.00000000    0.00029421   -0.00007493
     atom    8 type  1   force =    -0.00000000   -0.00029421    0.00007493
     atom    9 type  2   force =     0.00000000   -0.00000406   -0.00005589
     atom   10 type  2   force =    -0.00000000    0.00000406    0.00005589
     atom   11 type  2   force =    -0.00000000   -0.00000406    0.00005589
     atom   12 type  2   force =     0.00000000    0.00000406   -0.00005589
     atom   13 type  2   force =    -0.00000000   -0.00002704   -0.00004921
     atom   14 type  2   force =     0.00000000    0.00002704    0.00004921
     atom   15 type  2   force =    -0.00000000   -0.00002704    0.00004921
     atom   16 type  2   force =     0.00000000    0.00002704   -0.00004921
     atom   17 type  2   force =    -0.00000000    0.00010335    0.00002778
     atom   18 type  2   force =    -0.00000000   -0.00010335   -0.00002778
     atom   19 type  2   force =    -0.00000000    0.00010335   -0.00002778
     atom   20 type  2   force =     0.00000000   -0.00010335    0.00002778

     Total force =     0.002934     Total SCF correction =     0.000679
     SCF correction compared to forces is large: reduce conv_thr to get better values

     Computing stress (Cartesian axis) and pressure

          total   stress  (Ry/bohr**3)                   (kbar)     P=       -0.12
  -0.00000050   0.00000000   0.00000000           -0.07        0.00        0.00
   0.00000000  -0.00000033   0.00000000            0.00       -0.05        0.00
   0.00000000   0.00000000  -0.00000166            0.00        0.00       -0.24

     kinetic stress (kbar)   5524.57      0.00      0.00
                                0.00   5535.23      0.00
                                0.00      0.00   5529.23

     local   stress (kbar)  -4517.51      0.00      0.00
                                0.00  -1884.38      0.00
                                0.00      0.00   -991.28

     nonloc. stress (kbar)   1140.21      0.00      0.00
                                0.00   1138.27      0.00
                                0.00      0.00   1141.00

     hartree stress (kbar)   3402.57      0.00      0.00
                                0.00   2188.67     -0.00
                                0.00     -0.00   1719.13

     exc-cor stress (kbar)   5446.86     -0.00     -0.00
                               -0.00   5446.50      0.00
                               -0.00      0.00   5446.93

     corecor stress (kbar)  -7211.97      0.00     -0.00
                                0.00  -7212.17     -0.00
                               -0.00     -0.00  -7212.17

     ewald   stress (kbar)  -3784.80     -0.00     -0.00
                               -0.00  -5212.16      0.00
                               -0.00      0.00  -5633.09

     hubbard stress (kbar)      0.00      0.00      0.00
                                0.00      0.00      0.00
                                0.00      0.00      0.00

     DFT-D   stress (kbar)      0.00      0.00      0.00
                                0.00      0.00      0.00
                                0.00      0.00      0.00

     XDM     stress (kbar)      0.00      0.00      0.00
                                0.00      0.00      0.00
                                0.00      0.00      0.00

     dft-nl  stress (kbar)      0.00      0.00      0.00
                                0.00      0.00      0.00
                                0.00      0.00      0.00

     TS-vdW  stress (kbar)      0.00      0.00      0.00
                                0.00      0.00      0.00
                                0.00      0.00      0.00

     Writing output data file ./out/CsSnI3.save/

     General routines

     Parallel routines

     PAW routines

   This run was terminated on:  11:45:49  15Jan2021

   JOB DONE.