     Program PWSCF v.6.7MaX starts on 31Jan2021 at 18: 7:59

     R & G space division:  proc/nbgrp/npool/nimage =      48
     Waiting for input...
     Reading input from standard input

     Current dimensions of program PWSCF are:
     Max number of different atomic species (ntypx) = 10
     Max number of k-points (npk) =  40000
     Max angular momentum in pseudopotentials (lmaxx) =  3
     file Cs.rel-pbesol-spn-rrkjus_psl.1.0.0.UPF: wavefunction(s)  5S 6S renormalized
     file Sn.rel-pbesol-dn-rrkjus_psl.1.0.0.UPF: wavefunction(s)  5S 4D 4D renormalized
     file I.rel-pbesol-n-rrkjus_psl.1.0.0.UPF: wavefunction(s)  5S renormalized

     Subspace diagonalization in iterative solution of the eigenvalue problem:
     a serial algorithm will be used

     Title:
     CsSnI3

     bravais-lattice index     =            8
     lattice parameter (alat)  =      16.5033  a.u.
     unit-cell volume          =    6621.2471 (a.u.)^3
     number of atoms/cell      =           20
     number of atomic types    =            3
     number of electrons       =       176.00
     number of Kohn-Sham states=          180
     kinetic-energy cutoff     =      70.0000  Ry
     charge density cutoff     =     350.0000  Ry
     scf convergence threshold =      1.0E-06
     mixing beta               =       0.3500
     number of iterations used =            8  plain     mixing
     Exchange-correlation= PBESOL
                           (   1   4  10   8   0   0   0)
     Non magnetic calculation with spin-orbit

     celldm(1)=  16.503301  celldm(2)=   1.015921  celldm(3)=   1.449998
     celldm(4)=   0.000000  celldm(5)=   0.000000  celldm(6)=   0.000000

     crystal axes: (cart. coord. in units of alat)
               a(1) = (   1.000000   0.000000   0.000000 )
               a(2) = (   0.000000   1.015921   0.000000 )
               a(3) = (   0.000000   0.000000   1.449998 )

     reciprocal axes: (cart. coord. in units 2 pi/alat)
               b(1) = (  1.000000  0.000000  0.000000 )
               b(2) = (  0.000000  0.984329  0.000000 )
               b(3) = (  0.000000  0.000000  0.689656 )

     PseudoPot. # 1 for Cs read from file:
     /scratch/cmalosso/degironcoli/pseudo/pseudo-usp/Cs.rel-pbesol-spn-rrkjus_psl.1.0.0.UPF
     MD5 check sum: 846889b67fb1b19751b5b37931589d70
     Pseudo is Ultrasoft + core correction, Zval =  9.0
     Generated using &quot;atomic&quot; code by A. Dal Corso  v.6.4.1
     Using radial grid of 1251 points, 15 beta functions with:
                l(1) =   0
                l(2) =   0
                l(3) =   0
                l(4) =   1
                l(5) =   1
                l(6) =   1
                l(7) =   1
                l(8) =   2
                l(9) =   2
               l(10) =   2
               l(11) =   2
               l(12) =   3
               l(13) =   3
               l(14) =   3
               l(15) =   3
     Q(r) pseudized with 0 coefficients

     PseudoPot. # 2 for Sn read from file:
     /scratch/cmalosso/degironcoli/pseudo/pseudo-usp/Sn.rel-pbesol-dn-rrkjus_psl.1.0.0.UPF
     MD5 check sum: c1cf6ea56b96a3656bdf0d1db379e093
     Pseudo is Ultrasoft + core correction, Zval = 14.0
     Generated using &quot;atomic&quot; code by A. Dal Corso  v.6.3
     Using radial grid of 1243 points, 10 beta functions with:
                l(1) =   0
                l(2) =   0
                l(3) =   1
                l(4) =   1
                l(5) =   1
                l(6) =   1
                l(7) =   2
                l(8) =   2
                l(9) =   2
               l(10) =   2
     Q(r) pseudized with 0 coefficients

     PseudoPot. # 3 for I  read from file:
     /scratch/cmalosso/degironcoli/pseudo/pseudo-usp/I.rel-pbesol-n-rrkjus_psl.1.0.0.UPF
     MD5 check sum: 0f96c6bfb1b448f280658f96eb466b08
     Pseudo is Ultrasoft + core correction, Zval =  7.0
     Generated using &quot;atomic&quot; code by A. Dal Corso  v.6.3
     Using radial grid of 1247 points, 10 beta functions with:
                l(1) =   0
                l(2) =   0
                l(3) =   1
                l(4) =   1
                l(5) =   1
                l(6) =   1
                l(7) =   2
                l(8) =   2
                l(9) =   2
               l(10) =   2
     Q(r) pseudized with 0 coefficients

     atomic species   valence    mass     pseudopotential
        Cs             9.00   132.90000     Cs( 1.00)
        Sn            14.00   118.70000     Sn( 1.00)
        I              7.00   126.90000     I ( 1.00)

      8 Sym. Ops., with inversion, found ( 6 have fractional translation)

                                    s                        frac. trans.

      isym =  1     identity

 cryst.   s( 1) = (     1          0          0      )
                  (     0          1          0      )
                  (     0          0          1      )

 cart.    s( 1) = (  1.0000000  0.0000000  0.0000000 )
                  (  0.0000000  1.0000000  0.0000000 )
                  (  0.0000000  0.0000000  1.0000000 )

      isym =  2     180 deg rotation - cart. axis [0,0,1]

 cryst.   s( 2) = (    -1          0          0      )    f =(  0.0000000 )
                  (     0         -1          0      )       (  0.0000000 )
                  (     0          0          1      )       ( -0.5000000 )

 cart.    s( 2) = ( -1.0000000  0.0000000  0.0000000 )    f =(  0.0000000 )
                  (  0.0000000 -1.0000000  0.0000000 )       (  0.0000000 )
                  (  0.0000000  0.0000000  1.0000000 )       ( -0.7249991 )

[...]

      isym =  4     180 deg rotation - cart. axis [1,0,0]

[...]

      isym =  5     inversion

 cryst.   s( 5) = (    -1          0          0      )
                  (     0         -1          0      )
                  (     0          0         -1      )

 cart.    s( 5) = ( -1.0000000  0.0000000  0.0000000 )
                  (  0.0000000 -1.0000000  0.0000000 )
                  (  0.0000000  0.0000000 -1.0000000 )

      isym =  6     inv. 180 deg rotation - cart. axis [0,0,1]

[...]

      isym =  8     inv. 180 deg rotation - cart. axis [1,0,0]

 cryst.   s( 8) = (    -1          0          0      )    f =(  0.5000000 )
                  (     0          1          0      )       ( -0.5000000 )
                  (     0          0          1      )       ( -0.5000000 )

 cart.    s( 8) = ( -1.0000000  0.0000000  0.0000000 )    f =(  0.5000000 )
                  (  0.0000000  1.0000000  0.0000000 )       ( -0.5079604 )
                  (  0.0000000  0.0000000  1.0000000 )       ( -0.7249991 )

     double point group D_2h (mmm)
     there are 10 classes and  2 irreducible representations
     the character table:

       E     -E     C2    C2'  C2''  i     -i     s_v   s_v' s_v''
                   -C2   -C2'  -C2''             -s_v  -s_v' -s_v'
G_5+   2.00 -2.00  0.00  0.00  0.00  2.00 -2.00  0.00  0.00  0.00
G_5-   2.00 -2.00  0.00  0.00  0.00 -2.00  2.00  0.00  0.00  0.00

     the symmetry operations in each class and the name of the first element:

     E             1
          identity
     -E           -1
          identity E
      C2  -C2      2   -2
          180 deg rotation - cart. axis [0,0,1]
      C2' -C2'     4   -4
          180 deg rotation - cart. axis [1,0,0]
     C2'' -C2''    3   -3
          180 deg rotation - cart. axis [0,1,0]
     i             5
          inversion
     -i           -5
          inversion E
      s_v -s_v     6   -6
          inv. 180 deg rotation - cart. axis [0,0,1]
      s_v'-s_v'    8   -8
          inv. 180 deg rotation - cart. axis [1,0,0]
     s_v''-s_v'    7   -7
          inv. 180 deg rotation - cart. axis [0,1,0]

   Cartesian axes

     site n.     atom                  positions (alat units)
         1           Cs  tau(   1) = (   0.0046830   0.0237045   1.0874986  )
         2           Cs  tau(   2) = (   0.5046830   0.4842559   1.0874986  )
         3           Cs  tau(   3) = (   0.9953170   0.9922163   0.3624995  )
         4           Cs  tau(   4) = (   0.4953170   0.5316649   0.3624995  )
         5           Sn  tau(   5) = (   0.5000000   0.0000000   0.0000000  )
         6           Sn  tau(   6) = (   0.0000000   0.5079604   0.7249991  )
         7           Sn  tau(   7) = (   0.0000000   0.5079604   0.0000000  )
         8           Sn  tau(   8) = (   0.5000000   0.0000000   0.7249991  )
         9           I   tau(   9) = (   0.7030980   0.7148750   1.4390304  )
        10           I   tau(  10) = (   0.2969020   0.3010458   0.7140313  )
        11           I   tau(  11) = (   0.7030980   0.7148750   0.7359669  )
        12           I   tau(  12) = (   0.2969020   0.3010458   0.0109678  )
        13           I   tau(  13) = (   0.5026480   0.9956207   0.3624995  )
        14           I   tau(  14) = (   0.2030980   0.8090062   0.7359669  )
        15           I   tau(  15) = (   0.9973520   0.4876603   1.0874986  )
        16           I   tau(  16) = (   0.7969020   0.2069146   0.7140313  )
        17           I   tau(  17) = (   0.7969020   0.2069146   0.0109678  )
        18           I   tau(  18) = (   0.4973520   0.0203001   1.0874986  )
        19           I   tau(  19) = (   0.0026480   0.5282605   0.3624995  )
        20           I   tau(  20) = (   0.2030980   0.8090062   1.4390304  )

   Crystallographic axes

     site n.     atom                  positions (cryst. coord.)
         1           Cs  tau(   1) = (  0.0046830  0.0233330  0.7500000  )
         2           Cs  tau(   2) = (  0.5046830  0.4766670  0.7500000  )
         3           Cs  tau(   3) = (  0.9953170  0.9766670  0.2500000  )
         4           Cs  tau(   4) = (  0.4953170  0.5233330  0.2500000  )
         5           Sn  tau(   5) = (  0.5000000  0.0000000  0.0000000  )
         6           Sn  tau(   6) = (  0.0000000  0.5000000  0.5000000  )
         7           Sn  tau(   7) = (  0.0000000  0.5000000  0.0000000  )
         8           Sn  tau(   8) = (  0.5000000  0.0000000  0.5000000  )
         9           I   tau(   9) = (  0.7030980  0.7036720  0.9924360  )
        10           I   tau(  10) = (  0.2969020  0.2963280  0.4924360  )
        11           I   tau(  11) = (  0.7030980  0.7036720  0.5075640  )
        12           I   tau(  12) = (  0.2969020  0.2963280  0.0075640  )
        13           I   tau(  13) = (  0.5026480  0.9800180  0.2500000  )
        14           I   tau(  14) = (  0.2030980  0.7963280  0.5075640  )
        15           I   tau(  15) = (  0.9973520  0.4800180  0.7500000  )
        16           I   tau(  16) = (  0.7969020  0.2036720  0.4924360  )
        17           I   tau(  17) = (  0.7969020  0.2036720  0.0075640  )
        18           I   tau(  18) = (  0.4973520  0.0199820  0.7500000  )
        19           I   tau(  19) = (  0.0026480  0.5199820  0.2500000  )
        20           I   tau(  20) = (  0.2030980  0.7963280  0.9924360  )

     number of k points=     1
                       cart. coord. in units 2pi/alat
        k(    1) = (   0.2500000   0.2460822   0.1724140), wk =   1.0000000

                       cryst. coord.
        k(    1) = (   0.2500000   0.2500000   0.2500000), wk =   1.0000000

[...]
    -4.5135  -4.5135  -4.5085  -4.5085  -4.5040  -4.5040  -4.5014  -4.5014
    -4.1132  -4.1132  -3.7054  -3.7054  -3.5505  -3.5505  -3.1079  -3.1079
    -0.6516  -0.6516  -0.5528  -0.5528  -0.4370  -0.4370  -0.3906  -0.3906
     0.0615   0.0615   0.1152   0.1152   0.1422   0.1422   0.1953   0.1953
     0.3437   0.3437   0.5622   0.5622   0.5976   0.5976   0.8169   0.8169
     0.9370   0.9370   0.9705   0.9705   0.9844   0.9844   1.0432   1.0432
     1.2214   1.2214   1.2413   1.2413   1.2755   1.2755   1.2976   1.2976
     1.3708   1.3708   1.3998   1.3998   1.4739   1.4739   1.5209   1.5209
     1.7382   1.7382   1.7724   1.7724   1.8331   1.8331   1.8688   1.8688
     1.9180   1.9180   2.0078   2.0078   2.0330   2.0330   2.1039   2.1039
     2.1341   2.1341   2.3392   2.3392   2.4631   2.4631   2.7503   2.7503
     4.4422   4.4422   4.7051   4.7051

     occupation numbers
     1.0000   1.0000   1.0000   1.0000   1.0000   1.0000   1.0000   1.0000
     1.0000   1.0000   1.0000   1.0000   1.0000   1.0000   1.0000   1.0000
     1.0000   1.0000   1.0000   1.0000   1.0000   1.0000   1.0000   1.0000
     1.0000   1.0000   1.0000   1.0000   1.0000   1.0000   1.0000   1.0000
     1.0000   1.0000   1.0000   1.0000   1.0000   1.0000   1.0000   1.0000
     1.0000   1.0000   1.0000   1.0000   1.0000   1.0000   1.0000   1.0000
     1.0000   1.0000   1.0000   1.0000   1.0000   1.0000   1.0000   1.0000
     1.0000   1.0000   1.0000   1.0000   1.0000   1.0000   1.0000   1.0000
     1.0000   1.0000   1.0000   1.0000   1.0000   1.0000   1.0000   1.0000
     1.0000   1.0000   1.0000   1.0000   1.0000   1.0000   1.0000   1.0000
     1.0000   1.0000   1.0000   1.0000   1.0000   1.0000   1.0000   1.0000
     1.0000   1.0000   1.0000   1.0000   1.0000   1.0000   1.0000   1.0000
     1.0000   1.0000   1.0000   1.0000   1.0000   1.0000   1.0000   1.0000
     1.0000   1.0000   1.0000   1.0000   1.0000   1.0000   1.0000   1.0000
     1.0000   1.0000   1.0000   1.0000   1.0000   1.0000   1.0000   1.0000
     1.0000   1.0000   1.0000   1.0000   1.0000   1.0000   1.0000   1.0000
     1.0000   1.0000   1.0000   1.0000   1.0000   1.0000   1.0000   1.0000
     1.0000   1.0000   1.0000   1.0000   1.0000   1.0000   1.0000   1.0000
     1.0000   1.0000   1.0000   1.0000   1.0000   1.0000   1.0000   1.0000
     1.0000   1.0000   1.0000   1.0000   1.0000   1.0000   1.0000   1.0000
     1.0000   1.0000   1.0000   1.0000   1.0000   1.0000   1.0000   1.0000
     1.0000   1.0000   1.0000   1.0000   1.0000   1.0000   1.0000   1.0000
     0.0000   0.0000   0.0000   0.0000

     highest occupied, lowest unoccupied level (ev):     2.7503    4.4422

!    total energy              =   -1268.14522937 Ry
     estimated scf accuracy    <       0.00000012 Ry

     The total energy is the sum of the following terms:
     one-electron contribution =    -489.56704602 Ry
     hartree contribution      =     314.86631295 Ry
     xc contribution           =    -462.81230374 Ry
     ewald contribution        =    -630.63219256 Ry

     convergence has been achieved in  10 iterations

     Forces acting on atoms (cartesian axes, Ry/au):

     atom    1 type  1   force =     0.00020601   -0.00030321   -0.00000000
     atom    2 type  1   force =     0.00020601    0.00030321    0.00000000
     atom    3 type  1   force =    -0.00020601    0.00030321    0.00000000
     atom    4 type  1   force =    -0.00020601   -0.00030321    0.00000000
     atom    5 type  2   force =     0.00000000    0.00000000    0.00000000
     atom    6 type  2   force =     0.00000000    0.00000000   -0.00000000
     atom    7 type  2   force =     0.00000000    0.00000000   -0.00000000
     atom    8 type  2   force =     0.00000000    0.00000000    0.00000000
     atom    9 type  3   force =    -0.00050269    0.00021541    0.00008576
     atom   10 type  3   force =     0.00050269   -0.00021541    0.00008576
     atom   11 type  3   force =    -0.00050269    0.00021541   -0.00008576
     atom   12 type  3   force =     0.00050269   -0.00021541   -0.00008576
     atom   13 type  3   force =    -0.00056574    0.00057740    0.00000000
     atom   14 type  3   force =    -0.00050269   -0.00021541   -0.00008576
     atom   15 type  3   force =     0.00056574    0.00057740   -0.00000000
     atom   16 type  3   force =     0.00050269    0.00021541    0.00008576
     atom   17 type  3   force =     0.00050269    0.00021541   -0.00008576
     atom   18 type  3   force =     0.00056574   -0.00057740   -0.00000000
     atom   19 type  3   force =    -0.00056574   -0.00057740   -0.00000000
     atom   20 type  3   force =    -0.00050269   -0.00021541    0.00008576
     The non-local contrib.  to forces
     atom    1 type  1   force =    -0.00091113   -0.00470931    0.00000000
     atom    2 type  1   force =    -0.00091113    0.00470931    0.00000000
     atom    3 type  1   force =     0.00091113    0.00470931    0.00000000
     atom    4 type  1   force =     0.00091113   -0.00470931    0.00000000
     atom    5 type  2   force =    -0.00000000    0.00000000    0.00000000
     atom    6 type  2   force =     0.00000000    0.00000000   -0.00000000
     atom    7 type  2   force =     0.00000000    0.00000000   -0.00000000
     atom    8 type  2   force =     0.00000000    0.00000000   -0.00000000
     atom    9 type  3   force =     0.01047529    0.00984002    0.00484184
     atom   10 type  3   force =    -0.01047529   -0.00984002    0.00484184
     atom   11 type  3   force =     0.01047529    0.00984002   -0.00484184
     atom   12 type  3   force =    -0.01047529   -0.00984002   -0.00484184
     atom   13 type  3   force =    -0.00117913   -0.00424924    0.00000000
     atom   14 type  3   force =     0.01047529   -0.00984002   -0.00484184
     atom   15 type  3   force =     0.00117913   -0.00424924    0.00000000
     atom   16 type  3   force =    -0.01047529    0.00984002    0.00484184
     atom   17 type  3   force =    -0.01047529    0.00984002   -0.00484184
     atom   18 type  3   force =     0.00117913    0.00424924    0.00000000
     atom   19 type  3   force =    -0.00117913    0.00424924    0.00000000
     atom   20 type  3   force =     0.01047529   -0.00984002    0.00484184
     The ionic contribution  to forces
     atom    1 type  1   force =    -0.15384217   -0.81101302    0.00000000
     atom    2 type  1   force =    -0.15384217    0.81101302    0.00000000
     atom    3 type  1   force =     0.15384217    0.81101302   -0.00000000
     atom    4 type  1   force =     0.15384217   -0.81101302   -0.00000000
     atom    5 type  2   force =    -0.00000000   -0.00000000    0.00000000
     atom    6 type  2   force =     0.00000000    0.00000000   -0.00000000
     atom    7 type  2   force =    -0.00000000    0.00000000    0.00000000
     atom    8 type  2   force =     0.00000000   -0.00000000   -0.00000000
     atom    9 type  3   force =    -0.70474196   -0.63043970   -0.48733618
     atom   10 type  3   force =     0.70474196    0.63043970   -0.48733618
     atom   11 type  3   force =    -0.70474196   -0.63043970    0.48733618
     atom   12 type  3   force =     0.70474196    0.63043970    0.48733618
     atom   13 type  3   force =    -0.06288103    0.21897472   -0.00000000
     atom   14 type  3   force =    -0.70474196    0.63043970    0.48733618
     atom   15 type  3   force =     0.06288103    0.21897472   -0.00000000
     atom   16 type  3   force =     0.70474196   -0.63043970   -0.48733618
     atom   17 type  3   force =     0.70474196   -0.63043970    0.48733618
     atom   18 type  3   force =     0.06288103   -0.21897472    0.00000000
     atom   19 type  3   force =    -0.06288103   -0.21897472    0.00000000
     atom   20 type  3   force =    -0.70474196    0.63043970   -0.48733618
     The local contribution  to forces
     atom    1 type  1   force =     0.15496107    0.81526840   -0.00000000
     atom    2 type  1   force =     0.15496107   -0.81526840   -0.00000000
     atom    3 type  1   force =    -0.15496107   -0.81526840   -0.00000000
     atom    4 type  1   force =    -0.15496107    0.81526840   -0.00000000
     atom    5 type  2   force =    -0.00000000   -0.00000000   -0.00000000
     atom    6 type  2   force =    -0.00000000   -0.00000000   -0.00000000
     atom    7 type  2   force =    -0.00000000   -0.00000000   -0.00000000
     atom    8 type  2   force =    -0.00000000   -0.00000000   -0.00000000
     atom    9 type  3   force =     0.69513995    0.62220527    0.48303673
     atom   10 type  3   force =    -0.69513995   -0.62220527    0.48303673
     atom   11 type  3   force =     0.69513995    0.62220527   -0.48303673
     atom   12 type  3   force =    -0.69513995   -0.62220527   -0.48303673
     atom   13 type  3   force =     0.06332267   -0.21428869    0.00000000
     atom   14 type  3   force =     0.69513995   -0.62220527   -0.48303673
     atom   15 type  3   force =    -0.06332267   -0.21428869    0.00000000
     atom   16 type  3   force =    -0.69513995    0.62220527    0.48303673
     atom   17 type  3   force =    -0.69513995    0.62220527   -0.48303673
     atom   18 type  3   force =    -0.06332267    0.21428869    0.00000000
     atom   19 type  3   force =     0.06332267    0.21428869   -0.00000000
     atom   20 type  3   force =     0.69513995   -0.62220527    0.48303673
     The core correction contribution to forces
     atom    1 type  1   force =     0.00000117    0.00009041   -0.00000000
     atom    2 type  1   force =     0.00000117   -0.00009041   -0.00000000
     atom    3 type  1   force =    -0.00000117   -0.00009041    0.00000000
     atom    4 type  1   force =    -0.00000117    0.00009041    0.00000000
     atom    5 type  2   force =    -0.00000000   -0.00000000   -0.00000000
     atom    6 type  2   force =    -0.00000000   -0.00000000   -0.00000000
     atom    7 type  2   force =    -0.00000000   -0.00000000   -0.00000000
     atom    8 type  2   force =    -0.00000000    0.00000000   -0.00000000
     atom    9 type  3   force =    -0.00134005   -0.00135262   -0.00049149
     atom   10 type  3   force =     0.00134005    0.00135262   -0.00049149
     atom   11 type  3   force =    -0.00134005   -0.00135262    0.00049149
     atom   12 type  3   force =     0.00134005    0.00135262    0.00049149
     atom   13 type  3   force =     0.00017129    0.00020833    0.00000000
     atom   14 type  3   force =    -0.00134005    0.00135262    0.00049149
     atom   15 type  3   force =    -0.00017129    0.00020833    0.00000000
     atom   16 type  3   force =     0.00134005   -0.00135262   -0.00049149
     atom   17 type  3   force =     0.00134005   -0.00135262    0.00049149
     atom   18 type  3   force =    -0.00017129   -0.00020833    0.00000000
     atom   19 type  3   force =     0.00017129   -0.00020833   -0.00000000
     atom   20 type  3   force =    -0.00134005    0.00135262   -0.00049149
     The Hubbard contrib.    to forces
     atom    1 type  1   force =     0.00000000    0.00000000    0.00000000
     atom    2 type  1   force =     0.00000000    0.00000000    0.00000000
     atom    3 type  1   force =     0.00000000    0.00000000    0.00000000
     atom    4 type  1   force =     0.00000000    0.00000000    0.00000000
     atom    5 type  2   force =     0.00000000    0.00000000    0.00000000
     atom    6 type  2   force =     0.00000000    0.00000000    0.00000000
     atom    7 type  2   force =     0.00000000    0.00000000    0.00000000
     atom    8 type  2   force =     0.00000000    0.00000000    0.00000000
     atom    9 type  3   force =     0.00000000    0.00000000    0.00000000
     atom   10 type  3   force =     0.00000000    0.00000000    0.00000000
     atom   11 type  3   force =     0.00000000    0.00000000    0.00000000
     atom   12 type  3   force =     0.00000000    0.00000000    0.00000000
     atom   13 type  3   force =     0.00000000    0.00000000    0.00000000
     atom   14 type  3   force =     0.00000000    0.00000000    0.00000000
     atom   15 type  3   force =     0.00000000    0.00000000    0.00000000
     atom   16 type  3   force =     0.00000000    0.00000000    0.00000000
     atom   17 type  3   force =     0.00000000    0.00000000    0.00000000
     atom   18 type  3   force =     0.00000000    0.00000000    0.00000000
     atom   19 type  3   force =     0.00000000    0.00000000    0.00000000
     atom   20 type  3   force =     0.00000000    0.00000000    0.00000000
     The SCF correction term to forces
     atom    1 type  1   force =    -0.00000292    0.00006032    0.00000000
     atom    2 type  1   force =    -0.00000292   -0.00006032    0.00000000
     atom    3 type  1   force =     0.00000292   -0.00006032    0.00000000
     atom    4 type  1   force =     0.00000292    0.00006032   -0.00000000
     atom    5 type  2   force =    -0.00000000   -0.00000000   -0.00000000
     atom    6 type  2   force =     0.00000000   -0.00000000    0.00000000
     atom    7 type  2   force =     0.00000000    0.00000000   -0.00000000
     atom    8 type  2   force =     0.00000000   -0.00000000    0.00000000
     atom    9 type  3   force =    -0.00003592   -0.00003755    0.00003486
     atom   10 type  3   force =     0.00003592    0.00003755    0.00003486
     atom   11 type  3   force =    -0.00003592   -0.00003755   -0.00003486
     atom   12 type  3   force =     0.00003592    0.00003755   -0.00003486
     atom   13 type  3   force =     0.00000046   -0.00006772   -0.00000000
     atom   14 type  3   force =    -0.00003592    0.00003755   -0.00003486
     atom   15 type  3   force =    -0.00000046   -0.00006772   -0.00000000
     atom   16 type  3   force =     0.00003592   -0.00003755    0.00003486
     atom   17 type  3   force =     0.00003592   -0.00003755   -0.00003486
     atom   18 type  3   force =    -0.00000046    0.00006772    0.00000000
     atom   19 type  3   force =     0.00000046    0.00006772   -0.00000000
     atom   20 type  3   force =    -0.00003592    0.00003755    0.00003486

     Total force =     0.002367     Total SCF correction =     0.000253
     SCF correction compared to forces is large: reduce conv_thr to get better values

     Computing stress (Cartesian axis) and pressure

          total   stress  (Ry/bohr**3)                   (kbar)     P=      -11.87
  -0.00007259   0.00000000   0.00000000          -10.68        0.00        0.00
   0.00000000  -0.00007528   0.00000000            0.00      -11.07        0.00
   0.00000000   0.00000000  -0.00009423            0.00        0.00      -13.86

     kinetic stress (kbar)   5319.44      0.00      0.00
                                0.00   5318.06      0.00
                                0.00      0.00   5316.68

     local   stress (kbar)  -2403.19      0.00      0.00
                                0.00  -2458.93      0.00
                                0.00      0.00  -2397.47

     nonloc. stress (kbar)   1114.96      0.00      0.00
                                0.00   1114.69      0.00
                                0.00      0.00   1114.36

     hartree stress (kbar)   2336.66     -0.00     -0.00
                               -0.00   2355.06     -0.00
                               -0.00     -0.00   2303.71

     exc-cor stress (kbar)   5245.07     -0.00      0.00
                               -0.00   5245.14      0.00
                                0.00      0.00   5245.43

     corecor stress (kbar)  -6931.57      0.00     -0.00
                                0.00  -6931.52     -0.00
                               -0.00     -0.00  -6931.35

     ewald   stress (kbar)  -4692.04      0.00      0.00
                                0.00  -4653.56     -0.00
                                0.00     -0.00  -4665.23

     hubbard stress (kbar)      0.00      0.00      0.00
                                0.00      0.00      0.00
                                0.00      0.00      0.00

     DFT-D   stress (kbar)      0.00      0.00      0.00
                                0.00      0.00      0.00
                                0.00      0.00      0.00

     XDM     stress (kbar)      0.00      0.00      0.00
                                0.00      0.00      0.00
                                0.00      0.00      0.00

     dft-nl  stress (kbar)      0.00      0.00      0.00
                                0.00      0.00      0.00
                                0.00      0.00      0.00

     TS-vdW  stress (kbar)      0.00      0.00      0.00
                                0.00      0.00      0.00
                                0.00      0.00      0.00

     Writing output data file ./CsSnI3.save/

     General routines

     Parallel routines

   This run was terminated on:  18:11:34  31Jan2021

   JOB DONE.