     Program PWSCF v.6.7MaX starts on 27Jan2021 at 11: 8:27

     R & G space division:  proc/nbgrp/npool/nimage =      48
     Waiting for input...
     Reading input from standard input

     Current dimensions of program PWSCF are:
     Max number of different atomic species (ntypx) = 10
     Max number of k-points (npk) =  40000
     Max angular momentum in pseudopotentials (lmaxx) =  3

     File ./out/CsSnI3.update deleted, as requested

     File ./out/CsSnI3.bfgs deleted, as requested
     file Cs.rel-pbesol-spn-rrkjus_psl.1.0.0.UPF: wavefunction(s)  5S 6S renormalized
     file Sn.rel-pbesol-dn-rrkjus_psl.1.0.0.UPF: wavefunction(s)  5S 4D 4D renormalized
     file I.rel-pbesol-n-rrkjus_psl.1.0.0.UPF: wavefunction(s)  5S renormalized

     Subspace diagonalization in iterative solution of the eigenvalue problem:
     a serial algorithm will be used

     Title:
     CsSnI3

     bravais-lattice index     =            8
     lattice parameter (alat)  =       9.1317  a.u.
     unit-cell volume          =    6370.5385 (a.u.)^3
     number of atoms/cell      =           20
     number of atomic types    =            3
     number of electrons       =       176.00
     number of Kohn-Sham states=          176
     kinetic-energy cutoff     =      70.0000  Ry
     charge density cutoff     =     350.0000  Ry
     scf convergence threshold =      1.0E-08
     mixing beta               =       0.3500
     number of iterations used =            8  plain     mixing
     energy convergence thresh.=      1.0E-04
     force convergence thresh. =      1.0E-03
     press convergence thresh. =      5.0E-01
     Exchange-correlation= PBESOL
                           (   1   4  10   8   0   0   0)
     nstep                     =           50

     Non magnetic calculation with spin-orbit

     celldm(1)=   9.131705  celldm(2)=   2.227728  celldm(3)=   3.755420
     celldm(4)=   0.000000  celldm(5)=   0.000000  celldm(6)=   0.000000

     crystal axes: (cart. coord. in units of alat)
               a(1) = (   1.000000   0.000000   0.000000 )
               a(2) = (   0.000000   2.227728   0.000000 )
               a(3) = (   0.000000   0.000000   3.755420 )

     reciprocal axes: (cart. coord. in units 2 pi/alat)
               b(1) = (  1.000000  0.000000  0.000000 )
               b(2) = (  0.000000  0.448888  0.000000 )
               b(3) = (  0.000000  0.000000  0.266282 )

     PseudoPot. # 1 for Cs read from file:
     /scratch/cmalosso/degironcoli/pseudo/pseudo-usp/Cs.rel-pbesol-spn-rrkjus_psl.1.0.0.UPF
     MD5 check sum: 846889b67fb1b19751b5b37931589d70
     Pseudo is Ultrasoft + core correction, Zval =  9.0
     Generated using &quot;atomic&quot; code by A. Dal Corso  v.6.4.1
     Using radial grid of 1251 points, 15 beta functions with:
                l(1) =   0
                l(2) =   0
                l(3) =   0
                l(4) =   1
                l(5) =   1
                l(6) =   1
                l(7) =   1
                l(8) =   2
                l(9) =   2
               l(10) =   2
               l(11) =   2
               l(12) =   3
               l(13) =   3
               l(14) =   3
               l(15) =   3
     Q(r) pseudized with 0 coefficients

     PseudoPot. # 2 for Sn read from file:
     /scratch/cmalosso/degironcoli/pseudo/pseudo-usp/Sn.rel-pbesol-dn-rrkjus_psl.1.0.0.UPF
     MD5 check sum: c1cf6ea56b96a3656bdf0d1db379e093
     Pseudo is Ultrasoft + core correction, Zval = 14.0
     Generated using &quot;atomic&quot; code by A. Dal Corso  v.6.3
     Using radial grid of 1243 points, 10 beta functions with:
                l(1) =   0
                l(2) =   0
                l(3) =   1
                l(4) =   1
                l(5) =   1
                l(6) =   1
                l(7) =   2
                l(8) =   2
                l(9) =   2
               l(10) =   2
     Q(r) pseudized with 0 coefficients

     PseudoPot. # 3 for I  read from file:
     /scratch/cmalosso/degironcoli/pseudo/pseudo-usp/I.rel-pbesol-n-rrkjus_psl.1.0.0.UPF
     MD5 check sum: 0f96c6bfb1b448f280658f96eb466b08
     Pseudo is Ultrasoft + core correction, Zval =  7.0
     Generated using &quot;atomic&quot; code by A. Dal Corso  v.6.3
     Using radial grid of 1247 points, 10 beta functions with:
                l(1) =   0
                l(2) =   0
                l(3) =   1
                l(4) =   1
                l(5) =   1
                l(6) =   1
                l(7) =   2
                l(8) =   2
                l(9) =   2
               l(10) =   2
     Q(r) pseudized with 0 coefficients

     atomic species   valence    mass     pseudopotential
        Cs             9.00   132.90000     Cs( 1.00)
        Sn            14.00   118.70000     Sn( 1.00)
        I              7.00   126.90000     I ( 1.00)

      8 Sym. Ops., with inversion, found ( 6 have fractional translation)

                                    s                        frac. trans.

      isym =  1     identity

 cryst.   s( 1) = (     1          0          0      )
                  (     0          1          0      )
                  (     0          0          1      )

 cart.    s( 1) = (  1.0000000  0.0000000  0.0000000 )
                  (  0.0000000  1.0000000  0.0000000 )
                  (  0.0000000  0.0000000  1.0000000 )

      isym =  2     180 deg rotation - cart. axis [0,0,1]

 cryst.   s( 2) = (    -1          0          0      )    f =(  0.0000000 )
                  (     0         -1          0      )       (  0.5000000 )
                  (     0          0          1      )       (  0.5000000 )

 cart.    s( 2) = ( -1.0000000  0.0000000  0.0000000 )    f =(  0.0000000 )
                  (  0.0000000 -1.0000000  0.0000000 )       (  1.1138638 )
                  (  0.0000000  0.0000000  1.0000000 )       (  1.8777098 )

[...]

      isym =  5     inversion

[...]

      isym =  6     inv. 180 deg rotation - cart. axis [0,0,1]

[...]

     double point group D_2h (mmm)
     there are 10 classes and  2 irreducible representations
     the character table:

       E     -E     C2    C2'  C2''  i     -i     s_v   s_v' s_v''
                   -C2   -C2'  -C2''             -s_v  -s_v' -s_v'
G_5+   2.00 -2.00  0.00  0.00  0.00  2.00 -2.00  0.00  0.00  0.00
G_5-   2.00 -2.00  0.00  0.00  0.00 -2.00  2.00  0.00  0.00  0.00

     the symmetry operations in each class and the name of the first element:

     E             1
          identity
     -E           -1
          identity E
      C2  -C2      2   -2
          180 deg rotation - cart. axis [0,0,1]
      C2' -C2'     4   -4
          180 deg rotation - cart. axis [1,0,0]
     C2'' -C2''    3   -3
          180 deg rotation - cart. axis [0,1,0]
     i             5
          inversion
     -i           -5
          inversion E
      s_v -s_v     6   -6
          inv. 180 deg rotation - cart. axis [0,0,1]
      s_v'-s_v'    8   -8
          inv. 180 deg rotation - cart. axis [1,0,0]
     s_v''-s_v'    7   -7
          inv. 180 deg rotation - cart. axis [0,1,0]

   Cartesian axes

     site n.     atom                  positions (alat units)
         1           Cs  tau(   1) = (   0.2500000   0.1859640   2.5168147  )
         2           Cs  tau(   2) = (   0.7500000   2.0417636   1.2386050  )
         3           Cs  tau(   3) = (   0.2500000   1.2998278   3.1163149  )
         4           Cs  tau(   4) = (   0.7500000   0.9278998   0.6391048  )
         5           Sn  tau(   5) = (   0.2500000   0.7615710   1.6485466  )
         6           Sn  tau(   6) = (   0.7500000   1.4661567   2.1068731  )
         7           Sn  tau(   7) = (   0.2500000   1.8754348   0.2291632  )
         8           Sn  tau(   8) = (   0.7500000   0.3522928   3.5262565  )
         9           I   tau(   9) = (   0.7500000   0.0581437   0.4202578  )
        10           I   tau(  10) = (   0.2500000   2.1695839   3.3351619  )
        11           I   tau(  11) = (   0.7500000   1.1720075   1.4574521  )
        12           I   tau(  12) = (   0.2500000   1.0557201   2.2979676  )
        13           I   tau(  13) = (   0.7500000   0.6531118   2.9738192  )
        14           I   tau(  14) = (   0.2500000   1.5746158   0.7816005  )
        15           I   tau(  15) = (   0.7500000   1.7669756   2.6593103  )
        16           I   tau(  16) = (   0.2500000   0.4607520   1.0961094  )
        17           I   tau(  17) = (   0.7500000   0.3753632   1.8734812  )
        18           I   tau(  18) = (   0.2500000   1.8523644   1.8819384  )
        19           I   tau(  19) = (   0.7500000   1.4892270   0.0042286  )
        20           I   tau(  20) = (   0.2500000   0.7385006   3.7511911  )

   Crystallographic axes

     site n.     atom                  positions (cryst. coord.)
         1           Cs  tau(   1) = (  0.2500000  0.0834770  0.6701820  )
         2           Cs  tau(   2) = (  0.7500000  0.9165230  0.3298180  )
         3           Cs  tau(   3) = (  0.2500000  0.5834770  0.8298180  )
         4           Cs  tau(   4) = (  0.7500000  0.4165230  0.1701820  )
         5           Sn  tau(   5) = (  0.2500000  0.3418600  0.4389780  )
         6           Sn  tau(   6) = (  0.7500000  0.6581400  0.5610220  )
         7           Sn  tau(   7) = (  0.2500000  0.8418600  0.0610220  )
         8           Sn  tau(   8) = (  0.7500000  0.1581400  0.9389780  )
         9           I   tau(   9) = (  0.7500000  0.0261000  0.1119070  )
        10           I   tau(  10) = (  0.2500000  0.9739000  0.8880930  )
        11           I   tau(  11) = (  0.7500000  0.5261000  0.3880930  )
        12           I   tau(  12) = (  0.2500000  0.4739000  0.6119070  )
        13           I   tau(  13) = (  0.7500000  0.2931740  0.7918740  )
        14           I   tau(  14) = (  0.2500000  0.7068260  0.2081260  )
        15           I   tau(  15) = (  0.7500000  0.7931740  0.7081260  )
        16           I   tau(  16) = (  0.2500000  0.2068260  0.2918740  )
        17           I   tau(  17) = (  0.7500000  0.1684960  0.4988740  )
        18           I   tau(  18) = (  0.2500000  0.8315040  0.5011260  )
        19           I   tau(  19) = (  0.7500000  0.6684960  0.0011260  )
        20           I   tau(  20) = (  0.2500000  0.3315040  0.9988740  )

     number of k points=     1
                       cart. coord. in units 2pi/alat
        k(    1) = (   0.2500000   0.1122220   0.0665705), wk =   1.0000000

                       cryst. coord.
        k(    1) = (   0.2500000   0.2500000   0.2500000), wk =   1.0000000

     Initial potential from superposition of free atoms

     starting charge  175.84164, renormalised to  176.00000
     Starting wfcs are  208 randomized atomic wfcs

     Self-consistent Calculation

     iteration #  1     ecut=    70.00 Ry     beta= 0.35
     Davidson diagonalization with overlap
     ethr =  1.00E-02,  avg # of iterations =  1.0

     Threshold (ethr) on eigenvalues was too large:
     Diagonalizing with lowered threshold

     Davidson diagonalization with overlap
     ethr =  3.07E-04,  avg # of iterations =  3.0

     total energy              =   -1268.02222301 Ry
[...]
    -4.5338  -4.5338  -4.5283  -4.5283  -4.5181  -4.5181  -4.5093  -4.5093
    -3.0198  -3.0198  -3.0125  -3.0125  -2.9967  -2.9967  -2.9853  -2.9853
    -2.8952  -2.8952  -2.8892  -2.8892  -2.8507  -2.8507  -2.8460  -2.8460
    -1.9444  -1.9444  -1.9322  -1.9322  -1.8133  -1.8133  -1.7746  -1.7746
     1.0614   1.0614   1.1616   1.1616   1.2578   1.2578   1.3156   1.3156
     1.4470   1.4470   1.5402   1.5402   1.5878   1.5878   1.6331   1.6331
     1.7453   1.7453   1.8018   1.8018   1.9015   1.9015   1.9658   1.9658
     2.1379   2.1379   2.2209   2.2209   2.3833   2.3833   2.4596   2.4596
     2.5741   2.5741   2.6057   2.6057   2.7618   2.7618   2.8362   2.8362
     2.9361   2.9361   2.9919   2.9919   3.0317   3.0317   3.0785   3.0785
     3.1403   3.1403   3.2018   3.2018   3.2639   3.2639   3.3376   3.3376
     3.3819   3.3819   3.4143   3.4143   3.5163   3.5163   3.5544   3.5544
     4.1480   4.1480   4.2071   4.2071   4.3846   4.3846   4.4904   4.4904

     occupation numbers
     1.0000   1.0000   1.0000   1.0000   1.0000   1.0000   1.0000   1.0000
     1.0000   1.0000   1.0000   1.0000   1.0000   1.0000   1.0000   1.0000
     1.0000   1.0000   1.0000   1.0000   1.0000   1.0000   1.0000   1.0000
     1.0000   1.0000   1.0000   1.0000   1.0000   1.0000   1.0000   1.0000
     1.0000   1.0000   1.0000   1.0000   1.0000   1.0000   1.0000   1.0000
     1.0000   1.0000   1.0000   1.0000   1.0000   1.0000   1.0000   1.0000
     1.0000   1.0000   1.0000   1.0000   1.0000   1.0000   1.0000   1.0000
     1.0000   1.0000   1.0000   1.0000   1.0000   1.0000   1.0000   1.0000
     1.0000   1.0000   1.0000   1.0000   1.0000   1.0000   1.0000   1.0000
     1.0000   1.0000   1.0000   1.0000   1.0000   1.0000   1.0000   1.0000
     1.0000   1.0000   1.0000   1.0000   1.0000   1.0000   1.0000   1.0000
     1.0000   1.0000   1.0000   1.0000   1.0000   1.0000   1.0000   1.0000
     1.0000   1.0000   1.0000   1.0000   1.0000   1.0000   1.0000   1.0000
     1.0000   1.0000   1.0000   1.0000   1.0000   1.0000   1.0000   1.0000
     1.0000   1.0000   1.0000   1.0000   1.0000   1.0000   1.0000   1.0000
     1.0000   1.0000   1.0000   1.0000   1.0000   1.0000   1.0000   1.0000
     1.0000   1.0000   1.0000   1.0000   1.0000   1.0000   1.0000   1.0000
     1.0000   1.0000   1.0000   1.0000   1.0000   1.0000   1.0000   1.0000
     1.0000   1.0000   1.0000   1.0000   1.0000   1.0000   1.0000   1.0000
     1.0000   1.0000   1.0000   1.0000   1.0000   1.0000   1.0000   1.0000
     1.0000   1.0000   1.0000   1.0000   1.0000   1.0000   1.0000   1.0000
     1.0000   1.0000   1.0000   1.0000   1.0000   1.0000   1.0000   1.0000

     highest occupied level (ev):     4.4904

!    total energy              =   -1268.23185155 Ry
     estimated scf accuracy    <          4.3E-11 Ry

     The total energy is the sum of the following terms:
     one-electron contribution =    -437.86079817 Ry
     hartree contribution      =     299.91878591 Ry
     xc contribution           =    -463.38070453 Ry
     ewald contribution        =    -666.90913476 Ry

     convergence has been achieved in  25 iterations

     Forces acting on atoms (cartesian axes, Ry/au):

     atom    1 type  1   force =     0.00000000   -0.00009545   -0.00091018
     atom    2 type  1   force =     0.00000000    0.00009545    0.00091018
     atom    3 type  1   force =     0.00000000   -0.00009545    0.00091018
     atom    4 type  1   force =     0.00000000    0.00009545   -0.00091018
     atom    5 type  2   force =     0.00000000   -0.00000948   -0.00029279
     atom    6 type  2   force =     0.00000000    0.00000948    0.00029279
     atom    7 type  2   force =     0.00000000   -0.00000948    0.00029279
     atom    8 type  2   force =     0.00000000    0.00000948   -0.00029279
     atom    9 type  3   force =     0.00000000   -0.00039905   -0.00022001
     atom   10 type  3   force =     0.00000000    0.00039905    0.00022001
     atom   11 type  3   force =     0.00000000   -0.00039905    0.00022001
     atom   12 type  3   force =     0.00000000    0.00039905   -0.00022001
     atom   13 type  3   force =     0.00000000    0.00028544   -0.00008239
     atom   14 type  3   force =     0.00000000   -0.00028544    0.00008239
     atom   15 type  3   force =     0.00000000    0.00028544    0.00008239
     atom   16 type  3   force =     0.00000000   -0.00028544   -0.00008239
     atom   17 type  3   force =     0.00000000   -0.00032780   -0.00006252
     atom   18 type  3   force =     0.00000000    0.00032780    0.00006252
     atom   19 type  3   force =     0.00000000   -0.00032780    0.00006252
     atom   20 type  3   force =     0.00000000    0.00032780   -0.00006252
     The non-local contrib.  to forces
     atom    1 type  1   force =    -0.00000000    0.00255797   -0.00591251
     atom    2 type  1   force =     0.00000000   -0.00255797    0.00591251
     atom    3 type  1   force =     0.00000000    0.00255797    0.00591251
     atom    4 type  1   force =     0.00000000   -0.00255797   -0.00591251
     atom    5 type  2   force =     0.00000000   -0.06091045   -0.11074266
     atom    6 type  2   force =     0.00000000    0.06091045    0.11074266
     atom    7 type  2   force =    -0.00000000   -0.06091045    0.11074266
     atom    8 type  2   force =     0.00000000    0.06091045   -0.11074266
     atom    9 type  3   force =     0.00000000   -0.07321396   -0.06006284
     atom   10 type  3   force =     0.00000000    0.07321396    0.06006284
     atom   11 type  3   force =    -0.00000000   -0.07321396    0.06006284
     atom   12 type  3   force =    -0.00000000    0.07321396   -0.06006284
     atom   13 type  3   force =     0.00000000   -0.02698355    0.05189050
     atom   14 type  3   force =     0.00000000    0.02698355   -0.05189050
     atom   15 type  3   force =     0.00000000   -0.02698355   -0.05189050
     atom   16 type  3   force =    -0.00000000    0.02698355    0.05189050
     atom   17 type  3   force =     0.00000000    0.07202572   -0.01961721
     atom   18 type  3   force =     0.00000000   -0.07202572    0.01961721
     atom   19 type  3   force =     0.00000000    0.07202572    0.01961721
     atom   20 type  3   force =    -0.00000000   -0.07202572   -0.01961721
     The ionic contribution  to forces
     atom    1 type  1   force =     0.00000000    0.51489996   -0.21164002
     atom    2 type  1   force =    -0.00000000   -0.51489996    0.21164002
     atom    3 type  1   force =     0.00000000    0.51489996    0.21164002
     atom    4 type  1   force =    -0.00000000   -0.51489996   -0.21164002
     atom    5 type  2   force =     0.00000000   -3.32500298   -1.45995794
     atom    6 type  2   force =    -0.00000000    3.32500298    1.45995794
     atom    7 type  2   force =     0.00000000   -3.32500298    1.45995794
     atom    8 type  2   force =    -0.00000000    3.32500298   -1.45995794
     atom    9 type  3   force =    -0.00000000    4.04760145    5.74611452
     atom   10 type  3   force =     0.00000000   -4.04760145   -5.74611452
     atom   11 type  3   force =    -0.00000000    4.04760145   -5.74611452
     atom   12 type  3   force =     0.00000000   -4.04760145    5.74611452
     atom   13 type  3   force =    -0.00000000    1.87366573   -4.06718016
     atom   14 type  3   force =    -0.00000000   -1.87366573    4.06718016
     atom   15 type  3   force =    -0.00000000    1.87366573    4.06718016
     atom   16 type  3   force =     0.00000000   -1.87366573   -4.06718016
     atom   17 type  3   force =    -0.00000000   -4.74867936    2.40149414
     atom   18 type  3   force =     0.00000000    4.74867936   -2.40149414
     atom   19 type  3   force =    -0.00000000   -4.74867936   -2.40149414
     atom   20 type  3   force =     0.00000000    4.74867936    2.40149414
     The local contribution  to forces
     atom    1 type  1   force =     0.00000000   -0.51755863    0.21636671
     atom    2 type  1   force =     0.00000000    0.51755863   -0.21636671
     atom    3 type  1   force =     0.00000000   -0.51755863   -0.21636671
     atom    4 type  1   force =     0.00000000    0.51755863    0.21636671
     atom    5 type  2   force =     0.00000000    3.38578781    1.57010160
     atom    6 type  2   force =     0.00000000   -3.38578781   -1.57010160
     atom    7 type  2   force =     0.00000000    3.38578781   -1.57010160
     atom    8 type  2   force =     0.00000000   -3.38578781    1.57010160
     atom    9 type  3   force =     0.00000000   -3.98215923   -5.69277787
     atom   10 type  3   force =     0.00000000    3.98215923    5.69277787
     atom   11 type  3   force =     0.00000000   -3.98215923    5.69277787
     atom   12 type  3   force =     0.00000000    3.98215923   -5.69277787
     atom   13 type  3   force =     0.00000000   -1.84900747    4.02036046
     atom   14 type  3   force =     0.00000000    1.84900747   -4.02036046
     atom   15 type  3   force =     0.00000000   -1.84900747   -4.02036046
     atom   16 type  3   force =     0.00000000    1.84900747    4.02036046
     atom   17 type  3   force =     0.00000000    4.68428260   -2.38415319
     atom   18 type  3   force =     0.00000000   -4.68428260    2.38415319
     atom   19 type  3   force =     0.00000000    4.68428260    2.38415319
     atom   20 type  3   force =     0.00000000   -4.68428260   -2.38415319
     The core correction contribution to forces
     atom    1 type  1   force =    -0.00000000    0.00000445    0.00027220
     atom    2 type  1   force =    -0.00000000   -0.00000445   -0.00027220
     atom    3 type  1   force =    -0.00000000    0.00000445   -0.00027220
     atom    4 type  1   force =    -0.00000000   -0.00000445    0.00027220
     atom    5 type  2   force =     0.00000000    0.00010483    0.00030529
     atom    6 type  2   force =     0.00000000   -0.00010483   -0.00030529
     atom    7 type  2   force =     0.00000000    0.00010483   -0.00030529
     atom    8 type  2   force =     0.00000000   -0.00010483    0.00030529
     atom    9 type  3   force =    -0.00000000    0.00737416    0.00650862
     atom   10 type  3   force =    -0.00000000   -0.00737416   -0.00650862
     atom   11 type  3   force =    -0.00000000    0.00737416   -0.00650862
     atom   12 type  3   force =    -0.00000000   -0.00737416    0.00650862
     atom   13 type  3   force =    -0.00000000    0.00261216   -0.00515334
     atom   14 type  3   force =    -0.00000000   -0.00261216    0.00515334
     atom   15 type  3   force =    -0.00000000    0.00261216    0.00515334
     atom   16 type  3   force =    -0.00000000   -0.00261216   -0.00515334
     atom   17 type  3   force =    -0.00000000   -0.00796164    0.00221412
     atom   18 type  3   force =    -0.00000000    0.00796164   -0.00221412
     atom   19 type  3   force =     0.00000000   -0.00796164   -0.00221412
     atom   20 type  3   force =    -0.00000000    0.00796164    0.00221412
     The Hubbard contrib.    to forces
     atom    1 type  1   force =     0.00000000    0.00000000    0.00000000
     atom    2 type  1   force =     0.00000000    0.00000000    0.00000000
     atom    3 type  1   force =     0.00000000    0.00000000    0.00000000
     atom    4 type  1   force =     0.00000000    0.00000000    0.00000000
     atom    5 type  2   force =     0.00000000    0.00000000    0.00000000
     atom    6 type  2   force =     0.00000000    0.00000000    0.00000000
     atom    7 type  2   force =     0.00000000    0.00000000    0.00000000
     atom    8 type  2   force =     0.00000000    0.00000000    0.00000000
     atom    9 type  3   force =     0.00000000    0.00000000    0.00000000
     atom   10 type  3   force =     0.00000000    0.00000000    0.00000000
     atom   11 type  3   force =     0.00000000    0.00000000    0.00000000
     atom   12 type  3   force =     0.00000000    0.00000000    0.00000000
     atom   13 type  3   force =     0.00000000    0.00000000    0.00000000
     atom   14 type  3   force =     0.00000000    0.00000000    0.00000000
     atom   15 type  3   force =     0.00000000    0.00000000    0.00000000
     atom   16 type  3   force =     0.00000000    0.00000000    0.00000000
     atom   17 type  3   force =     0.00000000    0.00000000    0.00000000
     atom   18 type  3   force =     0.00000000    0.00000000    0.00000000
     atom   19 type  3   force =     0.00000000    0.00000000    0.00000000
     atom   20 type  3   force =     0.00000000    0.00000000    0.00000000
     The SCF correction term to forces
     atom    1 type  1   force =     0.00000000    0.00000080    0.00000344
     atom    2 type  1   force =    -0.00000000   -0.00000080   -0.00000344
     atom    3 type  1   force =     0.00000000    0.00000080   -0.00000344
     atom    4 type  1   force =    -0.00000000   -0.00000080    0.00000344
     atom    5 type  2   force =     0.00000000    0.00001131    0.00000092
     atom    6 type  2   force =    -0.00000000   -0.00001131   -0.00000092
     atom    7 type  2   force =    -0.00000000    0.00001131   -0.00000092
     atom    8 type  2   force =     0.00000000   -0.00001131    0.00000092
     atom    9 type  3   force =     0.00000000   -0.00000148   -0.00000244
     atom   10 type  3   force =    -0.00000000    0.00000148    0.00000244
     atom   11 type  3   force =    -0.00000000   -0.00000148    0.00000244
     atom   12 type  3   force =     0.00000000    0.00000148   -0.00000244
     atom   13 type  3   force =    -0.00000000   -0.00000142    0.00000016
     atom   14 type  3   force =     0.00000000    0.00000142   -0.00000016
     atom   15 type  3   force =    -0.00000000   -0.00000142   -0.00000016
     atom   16 type  3   force =    -0.00000000    0.00000142    0.00000016
     atom   17 type  3   force =     0.00000000    0.00000488   -0.00000039
     atom   18 type  3   force =    -0.00000000   -0.00000488    0.00000039
     atom   19 type  3   force =    -0.00000000    0.00000488    0.00000039
     atom   20 type  3   force =     0.00000000   -0.00000488   -0.00000039

     Total force =     0.002307     Total SCF correction =     0.000026

     Computing stress (Cartesian axis) and pressure

          total   stress  (Ry/bohr**3)                   (kbar)     P=       -0.49
  -0.00000652   0.00000000   0.00000000           -0.96        0.00        0.00
   0.00000000   0.00000148   0.00000000            0.00        0.22        0.00
   0.00000000   0.00000000  -0.00000489            0.00        0.00       -0.72

     kinetic stress (kbar)   6422.98      0.00      0.00
                                0.00   6428.57      0.00
                                0.00      0.00   6426.60

     local   stress (kbar)  -5077.93      0.00      0.00
                                0.00  -2161.80     -0.00
                                0.00     -0.00   -151.11

     nonloc. stress (kbar)   1352.33      0.00      0.00
                                0.00   1353.48      0.00
                                0.00      0.00   1354.37

     hartree stress (kbar)   3936.76      0.00     -0.00
                                0.00   2510.17     -0.00
                               -0.00     -0.00   1590.56

     exc-cor stress (kbar)   6323.20      0.00     -0.00
                                0.00   6323.33      0.00
                               -0.00      0.00   6323.18

     corecor stress (kbar)  -8360.71      0.00      0.00
                                0.00  -8361.38     -0.00
                                0.00     -0.00  -8361.63

     ewald   stress (kbar)  -4597.59      0.00     -0.00
                                0.00  -6092.16      0.00
                               -0.00      0.00  -7182.67

     hubbard stress (kbar)      0.00      0.00      0.00
                                0.00      0.00      0.00
                                0.00      0.00      0.00

     DFT-D   stress (kbar)      0.00      0.00      0.00
                                0.00      0.00      0.00
                                0.00      0.00      0.00

     XDM     stress (kbar)      0.00      0.00      0.00
                                0.00      0.00      0.00
                                0.00      0.00      0.00

     dft-nl  stress (kbar)      0.00      0.00      0.00
                                0.00      0.00      0.00
                                0.00      0.00      0.00

     TS-vdW  stress (kbar)      0.00      0.00      0.00
                                0.00      0.00      0.00
                                0.00      0.00      0.00

     Writing output data file ./out/CsSnI3.save/

     General routines

     Parallel routines

   This run was terminated on:  15:22:52  27Jan2021

   JOB DONE.