     Program PWSCF v.6.7MaX starts on 15Jan2021 at 11: 1:28

     R & G space division:  proc/nbgrp/npool/nimage =      32
     Waiting for input...
     Reading input from standard input

     Current dimensions of program PWSCF are:
     Max number of different atomic species (ntypx) = 10
     Max number of k-points (npk) =  40000
     Max angular momentum in pseudopotentials (lmaxx) =  3
     file Sn.pbe-dn-kjpaw_psl.1.0.0.UPF: wavefunction(s)  5S 5P 4D renormalized
     file I.pbe-n-kjpaw_psl.1.0.0.UPF: wavefunction(s)  5S renormalized
     file Cs.pbe-spn-kjpaw_psl.1.0.0.UPF: wavefunction(s)  5S 6S renormalized

     Subspace diagonalization in iterative solution of the eigenvalue problem:
     a serial algorithm will be used

     Message from routine setup:
     using ibrav=0 with symmetry is DISCOURAGED, use correct ibrav instead

     Title:
     CsSnI3

     bravais-lattice index     =            0
     lattice parameter (alat)  =       9.1317  a.u.
     unit-cell volume          =    6370.5385 (a.u.)^3
     number of atoms/cell      =           20
     number of atomic types    =            3
     number of electrons       =       176.00
     number of Kohn-Sham states=           89
     kinetic-energy cutoff     =      50.0000  Ry
     charge density cutoff     =     200.0000  Ry
     scf convergence threshold =      1.0E-06
     mixing beta               =       0.7000
     number of iterations used =            8  plain     mixing
     Exchange-correlation= SLA  PW   PBX  PBC
                           (   1   4   3   4   0   0   0)

     celldm(1)=   9.131705  celldm(2)=   0.000000  celldm(3)=   0.000000
     celldm(4)=   0.000000  celldm(5)=   0.000000  celldm(6)=   0.000000

     crystal axes: (cart. coord. in units of alat)
               a(1) = (   1.000000   0.000000   0.000000 )
               a(2) = (   0.000000   2.227728   0.000000 )
               a(3) = (   0.000000   0.000000   3.755420 )

     reciprocal axes: (cart. coord. in units 2 pi/alat)
               b(1) = (  1.000000  0.000000  0.000000 )
               b(2) = (  0.000000  0.448888  0.000000 )
               b(3) = (  0.000000  0.000000  0.266282 )

     PseudoPot. # 1 for Sn read from file:
     ../../../pseudo/Sn.pbe-dn-kjpaw_psl.1.0.0.UPF
     MD5 check sum: 67f11dec737d427557dc41ea34975807
     Pseudo is Projector augmented-wave + core cor, Zval = 14.0
     Generated using &quot;atomic&quot; code by A. Dal Corso  v.6.3
     Shape of augmentation charge: PSQ
     Using radial grid of 1243 points,  6 beta functions with:
                l(1) =   0
                l(2) =   0
                l(3) =   1
                l(4) =   1
                l(5) =   2
                l(6) =   2
     Q(r) pseudized with 0 coefficients

     PseudoPot. # 2 for I  read from file:
     ../../../pseudo/I.pbe-n-kjpaw_psl.1.0.0.UPF
     MD5 check sum: cd3d296c3308a581e1559a0c8a554cb5
     Pseudo is Projector augmented-wave + core cor, Zval =  7.0
     Generated using &quot;atomic&quot; code by A. Dal Corso  v.6.3
     Shape of augmentation charge: PSQ
     Using radial grid of 1247 points,  6 beta functions with:
                l(1) =   0
                l(2) =   0
                l(3) =   1
                l(4) =   1
                l(5) =   2
                l(6) =   2
     Q(r) pseudized with 0 coefficients

     PseudoPot. # 3 for Cs read from file:
     ../../../pseudo/Cs.pbe-spn-kjpaw_psl.1.0.0.UPF
     MD5 check sum: b82c75cc2e1f4ff73b6412cffeb9c584
     Pseudo is Projector augmented-wave + core cor, Zval =  9.0
     Generated using &quot;atomic&quot; code by A. Dal Corso  v.6.4.1
     Shape of augmentation charge: PSQ
     Using radial grid of 1251 points,  9 beta functions with:
                l(1) =   0
                l(2) =   0
                l(3) =   0
                l(4) =   1
                l(5) =   1
                l(6) =   2
                l(7) =   2
                l(8) =   3
                l(9) =   3
     Q(r) pseudized with 0 coefficients

     atomic species   valence    mass     pseudopotential
        Sn            14.00   118.70000     Sn( 1.00)
        I              7.00   126.90000     I ( 1.00)
        Cs             9.00   132.90000     Cs( 1.00)

      8 Sym. Ops., with inversion, found ( 6 have fractional translation)

                                    s                        frac. trans.

      isym =  1     identity

 cryst.   s( 1) = (     1          0          0      )
                  (     0          1          0      )
                  (     0          0          1      )

 cart.    s( 1) = (  1.0000000  0.0000000  0.0000000 )
                  (  0.0000000  1.0000000  0.0000000 )
                  (  0.0000000  0.0000000  1.0000000 )

      isym =  2     180 deg rotation - cart. axis [0,0,1]

 cryst.   s( 2) = (    -1          0          0      )    f =(  0.0000000 )
                  (     0         -1          0      )       (  0.5000000 )
                  (     0          0          1      )       (  0.5000000 )

 cart.    s( 2) = ( -1.0000000  0.0000000  0.0000000 )    f =(  0.0000000 )
                  (  0.0000000 -1.0000000  0.0000000 )       (  1.1138638 )
                  (  0.0000000  0.0000000  1.0000000 )       (  1.8777098 )

[...]

      isym =  4     180 deg rotation - cart. axis [1,0,0]

[...]

      isym =  5     inversion

 cryst.   s( 5) = (    -1          0          0      )
                  (     0         -1          0      )
                  (     0          0         -1      )

 cart.    s( 5) = ( -1.0000000  0.0000000  0.0000000 )
                  (  0.0000000 -1.0000000  0.0000000 )
                  (  0.0000000  0.0000000 -1.0000000 )

      isym =  6     inv. 180 deg rotation - cart. axis [0,0,1]

[...]

      isym =  8     inv. 180 deg rotation - cart. axis [1,0,0]

 cryst.   s( 8) = (    -1          0          0      )    f =(  0.5000000 )
                  (     0          1          0      )       (  0.0000000 )
                  (     0          0          1      )       (  0.0000000 )

 cart.    s( 8) = ( -1.0000000  0.0000000  0.0000000 )    f =(  0.5000000 )
                  (  0.0000000  1.0000000  0.0000000 )       (  0.0000000 )
                  (  0.0000000  0.0000000  1.0000000 )       (  0.0000000 )

   Cartesian axes

     site n.     atom                  positions (alat units)
         1           Cs  tau(   1) = (   0.2500000   0.1859640   2.5168147  )
         2           Cs  tau(   2) = (   0.7500000   2.0417636   1.2386050  )
         3           Cs  tau(   3) = (   0.2500000   1.2998278   3.1163149  )
         4           Cs  tau(   4) = (   0.7500000   0.9278998   0.6391048  )
         5           Sn  tau(   5) = (   0.2500000   0.7615710   1.6485466  )
         6           Sn  tau(   6) = (   0.7500000   1.4661567   2.1068731  )
         7           Sn  tau(   7) = (   0.2500000   1.8754348   0.2291632  )
         8           Sn  tau(   8) = (   0.7500000   0.3522928   3.5262565  )
         9           I   tau(   9) = (   0.7500000   0.0581437   0.4202578  )
        10           I   tau(  10) = (   0.2500000   2.1695839   3.3351619  )
        11           I   tau(  11) = (   0.7500000   1.1720075   1.4574521  )
        12           I   tau(  12) = (   0.2500000   1.0557201   2.2979676  )
        13           I   tau(  13) = (   0.7500000   0.6531118   2.9738192  )
        14           I   tau(  14) = (   0.2500000   1.5746158   0.7816005  )
        15           I   tau(  15) = (   0.7500000   1.7669756   2.6593103  )
        16           I   tau(  16) = (   0.2500000   0.4607520   1.0961094  )
        17           I   tau(  17) = (   0.7500000   0.3753632   1.8734812  )
        18           I   tau(  18) = (   0.2500000   1.8523644   1.8819384  )
        19           I   tau(  19) = (   0.7500000   1.4892270   0.0042286  )
        20           I   tau(  20) = (   0.2500000   0.7385006   3.7511911  )

   Crystallographic axes

     site n.     atom                  positions (cryst. coord.)
         1           Cs  tau(   1) = (  0.2500000  0.0834770  0.6701820  )
         2           Cs  tau(   2) = (  0.7500000  0.9165230  0.3298180  )
         3           Cs  tau(   3) = (  0.2500000  0.5834770  0.8298180  )
         4           Cs  tau(   4) = (  0.7500000  0.4165230  0.1701820  )
         5           Sn  tau(   5) = (  0.2500000  0.3418600  0.4389780  )
         6           Sn  tau(   6) = (  0.7500000  0.6581400  0.5610220  )
         7           Sn  tau(   7) = (  0.2500000  0.8418600  0.0610220  )
         8           Sn  tau(   8) = (  0.7500000  0.1581400  0.9389780  )
         9           I   tau(   9) = (  0.7500000  0.0261000  0.1119070  )
        10           I   tau(  10) = (  0.2500000  0.9739000  0.8880930  )
        11           I   tau(  11) = (  0.7500000  0.5261000  0.3880930  )
        12           I   tau(  12) = (  0.2500000  0.4739000  0.6119070  )
        13           I   tau(  13) = (  0.7500000  0.2931740  0.7918740  )
        14           I   tau(  14) = (  0.2500000  0.7068260  0.2081260  )
        15           I   tau(  15) = (  0.7500000  0.7931740  0.7081260  )
        16           I   tau(  16) = (  0.2500000  0.2068260  0.2918740  )
        17           I   tau(  17) = (  0.7500000  0.1684960  0.4988740  )
        18           I   tau(  18) = (  0.2500000  0.8315040  0.5011260  )
        19           I   tau(  19) = (  0.7500000  0.6684960  0.0011260  )
        20           I   tau(  20) = (  0.2500000  0.3315040  0.9988740  )

     number of k points=    27
                       cart. coord. in units 2pi/alat
        k(    1) = (   0.0000000   0.0000000   0.0000000), wk =   0.0160000
        k(    2) = (   0.0000000   0.0000000   0.0532564), wk =   0.0320000
        k(    3) = (   0.0000000   0.0000000   0.1065127), wk =   0.0320000
        k(    4) = (   0.0000000   0.0897776   0.0000000), wk =   0.0320000
        k(    5) = (   0.0000000   0.0897776   0.0532564), wk =   0.0640000
        k(    6) = (   0.0000000   0.0897776   0.1065127), wk =   0.0640000
        k(    7) = (   0.0000000   0.1795552   0.0000000), wk =   0.0320000
        k(    8) = (   0.0000000   0.1795552   0.0532564), wk =   0.0640000
        k(    9) = (   0.0000000   0.1795552   0.1065127), wk =   0.0640000
        k(   10) = (   0.2000000   0.0000000   0.0000000), wk =   0.0320000
        k(   11) = (   0.2000000   0.0000000   0.0532564), wk =   0.0640000
        k(   12) = (   0.2000000   0.0000000   0.1065127), wk =   0.0640000
        k(   13) = (   0.2000000   0.0897776   0.0000000), wk =   0.0640000
        k(   14) = (   0.2000000   0.0897776   0.0532564), wk =   0.1280000
        k(   15) = (   0.2000000   0.0897776   0.1065127), wk =   0.1280000
        k(   16) = (   0.2000000   0.1795552   0.0000000), wk =   0.0640000
        k(   17) = (   0.2000000   0.1795552   0.0532564), wk =   0.1280000
        k(   18) = (   0.2000000   0.1795552   0.1065127), wk =   0.1280000
        k(   19) = (   0.4000000   0.0000000   0.0000000), wk =   0.0320000
        k(   20) = (   0.4000000   0.0000000   0.0532564), wk =   0.0640000
[...]
     1.0000   1.0000   1.0000   1.0000   1.0000   1.0000   1.0000   1.0000
     1.0000   1.0000   1.0000   1.0000   1.0000   1.0000   1.0000   1.0000
     1.0000   1.0000   1.0000   1.0000   1.0000   1.0000   1.0000   1.0000
     1.0000   1.0000   1.0000   1.0000   1.0000   1.0000   1.0000   1.0000
     0.0000

[...]

          k = 0.4000 0.1796 0.1065 ( 38024 PWs)   bands (ev):

   -17.8648 -17.8648 -17.8647 -17.8647 -17.8637 -17.8637 -17.8636 -17.8636
   -17.8525 -17.8525 -17.8523 -17.8523 -17.8451 -17.8451 -17.8446 -17.8446
   -17.8414 -17.8414 -17.8410 -17.8410 -17.7714 -17.7714 -17.7712 -17.7712
    -8.5468  -8.5460  -8.4751  -8.4745  -8.3562  -8.3554  -8.2960  -8.2953
    -8.2777  -8.2753  -8.2701  -8.2680  -4.7469  -4.7454  -4.7282  -4.7266
    -4.5984  -4.5979  -4.5941  -4.5934  -4.5713  -4.5692  -4.5637  -4.5622
    -3.1668  -3.1637  -3.1308  -3.1285   0.1944   0.1982   0.2691   0.2702
     0.4722   0.4753   0.5286   0.5354   0.7095   0.7160   0.9981   1.0106
     1.3417   1.3495   1.5067   1.5107   1.6623   1.6790   1.7247   1.7534
     1.7863   1.7982   1.8101   1.8218   1.9152   1.9239   1.9652   1.9947
     2.0762   2.0998   2.1596   2.1707   2.7856   2.8334   2.9162   2.9283
     6.0684

     occupation numbers
     1.0000   1.0000   1.0000   1.0000   1.0000   1.0000   1.0000   1.0000
     1.0000   1.0000   1.0000   1.0000   1.0000   1.0000   1.0000   1.0000
     1.0000   1.0000   1.0000   1.0000   1.0000   1.0000   1.0000   1.0000
     1.0000   1.0000   1.0000   1.0000   1.0000   1.0000   1.0000   1.0000
     1.0000   1.0000   1.0000   1.0000   1.0000   1.0000   1.0000   1.0000
     1.0000   1.0000   1.0000   1.0000   1.0000   1.0000   1.0000   1.0000
     1.0000   1.0000   1.0000   1.0000   1.0000   1.0000   1.0000   1.0000
     1.0000   1.0000   1.0000   1.0000   1.0000   1.0000   1.0000   1.0000
     1.0000   1.0000   1.0000   1.0000   1.0000   1.0000   1.0000   1.0000
     1.0000   1.0000   1.0000   1.0000   1.0000   1.0000   1.0000   1.0000
     1.0000   1.0000   1.0000   1.0000   1.0000   1.0000   1.0000   1.0000
     0.0000

     highest occupied, lowest unoccupied level (ev):     3.0573    5.1398

!    total energy              =   -7979.62709047 Ry

     total all-electron energy =   -282510.781803 Ry
     estimated scf accuracy    <       0.00000035 Ry

     The total energy is the sum of the following terms:
     one-electron contribution =    -463.63837820 Ry
     hartree contribution      =     316.59182619 Ry
     xc contribution           =    -465.88952268 Ry
     ewald contribution        =    -633.56960439 Ry
     one-center paw contrib.   =   -6733.12141140 Ry
      -> PAW hartree energy AE =      25.63857617 Ry
      -> PAW hartree energy PS =     -25.52902769 Ry
      -> PAW xc energy AE      =    -383.53085674 Ry
      -> PAW xc energy PS      =      20.51553701 Ry
      -> total E_H with PAW    =     316.70137467 Ry
      -> total E_XC with PAW   =    -828.90484241 Ry

     convergence has been achieved in  11 iterations

     Forces acting on atoms (cartesian axes, Ry/au):

     atom    1 type  3   force =     0.00000000   -0.00061352    0.00041127
     atom    2 type  3   force =     0.00000000    0.00061352   -0.00041127
     atom    3 type  3   force =     0.00000000   -0.00061352   -0.00041127
     atom    4 type  3   force =     0.00000000    0.00061352    0.00041127
     atom    5 type  1   force =     0.00000000   -0.00052072    0.00019352
     atom    6 type  1   force =     0.00000000    0.00052072   -0.00019352
     atom    7 type  1   force =     0.00000000   -0.00052072   -0.00019352
     atom    8 type  1   force =     0.00000000    0.00052072    0.00019352
     atom    9 type  2   force =    -0.00000000   -0.00001447   -0.00033348
     atom   10 type  2   force =     0.00000000    0.00001447    0.00033348
     atom   11 type  2   force =     0.00000000   -0.00001447    0.00033348
     atom   12 type  2   force =     0.00000000    0.00001447   -0.00033348
     atom   13 type  2   force =     0.00000000   -0.00023506   -0.00034778
     atom   14 type  2   force =     0.00000000    0.00023506    0.00034778
     atom   15 type  2   force =    -0.00000000   -0.00023506    0.00034778
     atom   16 type  2   force =     0.00000000    0.00023506   -0.00034778
     atom   17 type  2   force =     0.00000000   -0.00041297    0.00032174
     atom   18 type  2   force =     0.00000000    0.00041297   -0.00032174
     atom   19 type  2   force =     0.00000000   -0.00041297   -0.00032174
     atom   20 type  2   force =     0.00000000    0.00041297    0.00032174
     The non-local contrib.  to forces
     atom    1 type  3   force =     0.00000000    0.00221933   -0.00229102
     atom    2 type  3   force =     0.00000000   -0.00221933    0.00229102
     atom    3 type  3   force =     0.00000000    0.00221933    0.00229102
     atom    4 type  3   force =     0.00000000   -0.00221933   -0.00229102
     atom    5 type  1   force =     0.00000000   -0.08726290   -0.13183120
     atom    6 type  1   force =    -0.00000000    0.08726290    0.13183120
     atom    7 type  1   force =     0.00000000   -0.08726290    0.13183120
     atom    8 type  1   force =     0.00000000    0.08726290   -0.13183120
     atom    9 type  2   force =     0.00000000   -0.04832919   -0.04730685
     atom   10 type  2   force =     0.00000000    0.04832919    0.04730685
     atom   11 type  2   force =     0.00000000   -0.04832919    0.04730685
     atom   12 type  2   force =     0.00000000    0.04832919   -0.04730685
     atom   13 type  2   force =    -0.00000000   -0.03284078    0.05563306
     atom   14 type  2   force =     0.00000000    0.03284078   -0.05563306
     atom   15 type  2   force =    -0.00000000   -0.03284078   -0.05563306
     atom   16 type  2   force =     0.00000000    0.03284078    0.05563306
     atom   17 type  2   force =     0.00000000    0.05553465   -0.01653719
     atom   18 type  2   force =     0.00000000   -0.05553465    0.01653719
     atom   19 type  2   force =     0.00000000    0.05553465    0.01653719
     atom   20 type  2   force =     0.00000000   -0.05553465   -0.01653719
     The ionic contribution  to forces
     atom    1 type  3   force =    -0.00000000    0.02273773    0.42856976
     atom    2 type  3   force =    -0.00000000   -0.02273773   -0.42856976
     atom    3 type  3   force =    -0.00000000    0.02273773   -0.42856976
     atom    4 type  3   force =     0.00000000   -0.02273773    0.42856976
     atom    5 type  1   force =    -0.00000000   -2.44382135   -1.60292983
     atom    6 type  1   force =     0.00000000    2.44382135    1.60292983
     atom    7 type  1   force =    -0.00000000   -2.44382135    1.60292983
     atom    8 type  1   force =     0.00000000    2.44382135   -1.60292983
     atom    9 type  2   force =    -0.00000000    3.00608891    5.13288893
     atom   10 type  2   force =     0.00000000   -3.00608891   -5.13288893
     atom   11 type  2   force =    -0.00000000    3.00608891   -5.13288893
     atom   12 type  2   force =    -0.00000000   -3.00608891    5.13288893
     atom   13 type  2   force =     0.00000000    2.02422849   -3.75281499
     atom   14 type  2   force =     0.00000000   -2.02422849    3.75281499
     atom   15 type  2   force =    -0.00000000    2.02422849    3.75281499
     atom   16 type  2   force =    -0.00000000   -2.02422849   -3.75281499
     atom   17 type  2   force =     0.00000000   -4.20564473    2.10270404
     atom   18 type  2   force =    -0.00000000    4.20564473   -2.10270404
     atom   19 type  2   force =     0.00000000   -4.20564473   -2.10270404
     atom   20 type  2   force =    -0.00000000    4.20564473    2.10270404
     The local contribution  to forces
     atom    1 type  3   force =     0.00000000   -0.02544980   -0.42613132
     atom    2 type  3   force =    -0.00000000    0.02544980    0.42613132
     atom    3 type  3   force =     0.00000000   -0.02544980    0.42613132
     atom    4 type  3   force =    -0.00000000    0.02544980   -0.42613132
     atom    5 type  1   force =    -0.00000000    2.53054916    1.73520845
     atom    6 type  1   force =    -0.00000000   -2.53054916   -1.73520845
     atom    7 type  1   force =    -0.00000000    2.53054916   -1.73520845
     atom    8 type  1   force =    -0.00000000   -2.53054916    1.73520845
     atom    9 type  2   force =     0.00000000   -2.96439879   -5.09283978
     atom   10 type  2   force =     0.00000000    2.96439879    5.09283978
     atom   11 type  2   force =     0.00000000   -2.96439879    5.09283978
     atom   12 type  2   force =     0.00000000    2.96439879   -5.09283978
     atom   13 type  2   force =    -0.00000000   -1.99608371    3.70455837
     atom   14 type  2   force =    -0.00000000    1.99608371   -3.70455837
     atom   15 type  2   force =     0.00000000   -1.99608371   -3.70455837
     atom   16 type  2   force =    -0.00000000    1.99608371    3.70455837
     atom   17 type  2   force =    -0.00000000    4.15753329   -2.08848200
     atom   18 type  2   force =    -0.00000000   -4.15753329    2.08848200
     atom   19 type  2   force =     0.00000000    4.15753329    2.08848200
     atom   20 type  2   force =    -0.00000000   -4.15753329   -2.08848200
     The core correction contribution to forces
     atom    1 type  3   force =    -0.00000000   -0.00017917    0.00018683
     atom    2 type  3   force =     0.00000000    0.00017917   -0.00018683
     atom    3 type  3   force =    -0.00000000   -0.00017917   -0.00018683
     atom    4 type  3   force =     0.00000000    0.00017917    0.00018683
     atom    5 type  1   force =    -0.00000000    0.00019765    0.00007339
     atom    6 type  1   force =    -0.00000000   -0.00019765   -0.00007339
     atom    7 type  1   force =     0.00000000    0.00019765   -0.00007339
     atom    8 type  1   force =    -0.00000000   -0.00019765    0.00007339
     atom    9 type  2   force =    -0.00000000    0.00642392    0.00650997
     atom   10 type  2   force =     0.00000000   -0.00642392   -0.00650997
     atom   11 type  2   force =    -0.00000000    0.00642392   -0.00650997
     atom   12 type  2   force =     0.00000000   -0.00642392    0.00650997
     atom   13 type  2   force =    -0.00000000    0.00433186   -0.00741569
     atom   14 type  2   force =     0.00000000   -0.00433186    0.00741569
     atom   15 type  2   force =     0.00000000    0.00433186    0.00741569
     atom   16 type  2   force =     0.00000000   -0.00433186   -0.00741569
     atom   17 type  2   force =     0.00000000   -0.00761224    0.00247232
     atom   18 type  2   force =     0.00000000    0.00761224   -0.00247232
     atom   19 type  2   force =    -0.00000000   -0.00761224   -0.00247232
     atom   20 type  2   force =     0.00000000    0.00761224    0.00247232
     The Hubbard contrib.    to forces
     atom    1 type  3   force =     0.00000000    0.00000000    0.00000000
     atom    2 type  3   force =     0.00000000    0.00000000    0.00000000
     atom    3 type  3   force =     0.00000000    0.00000000    0.00000000
     atom    4 type  3   force =     0.00000000    0.00000000    0.00000000
     atom    5 type  1   force =     0.00000000    0.00000000    0.00000000
     atom    6 type  1   force =     0.00000000    0.00000000    0.00000000
     atom    7 type  1   force =     0.00000000    0.00000000    0.00000000
     atom    8 type  1   force =     0.00000000    0.00000000    0.00000000
     atom    9 type  2   force =     0.00000000    0.00000000    0.00000000
     atom   10 type  2   force =     0.00000000    0.00000000    0.00000000
     atom   11 type  2   force =     0.00000000    0.00000000    0.00000000
     atom   12 type  2   force =     0.00000000    0.00000000    0.00000000
     atom   13 type  2   force =     0.00000000    0.00000000    0.00000000
     atom   14 type  2   force =     0.00000000    0.00000000    0.00000000
     atom   15 type  2   force =     0.00000000    0.00000000    0.00000000
     atom   16 type  2   force =     0.00000000    0.00000000    0.00000000
     atom   17 type  2   force =     0.00000000    0.00000000    0.00000000
     atom   18 type  2   force =     0.00000000    0.00000000    0.00000000
     atom   19 type  2   force =     0.00000000    0.00000000    0.00000000
     atom   20 type  2   force =     0.00000000    0.00000000    0.00000000
     The SCF correction term to forces
     atom    1 type  3   force =    -0.00000000    0.00005838    0.00007701
     atom    2 type  3   force =     0.00000000   -0.00005838   -0.00007701
     atom    3 type  3   force =    -0.00000000    0.00005838   -0.00007701
     atom    4 type  3   force =    -0.00000000   -0.00005838    0.00007701
     atom    5 type  1   force =     0.00000000   -0.00018328   -0.00032728
     atom    6 type  1   force =    -0.00000000    0.00018328    0.00032728
     atom    7 type  1   force =    -0.00000000   -0.00018328    0.00032728
     atom    8 type  1   force =     0.00000000    0.00018328   -0.00032728
     atom    9 type  2   force =    -0.00000000    0.00020067    0.00041425
     atom   10 type  2   force =     0.00000000   -0.00020067   -0.00041425
     atom   11 type  2   force =    -0.00000000    0.00020067   -0.00041425
     atom   12 type  2   force =    -0.00000000   -0.00020067    0.00041425
     atom   13 type  2   force =    -0.00000000    0.00012908   -0.00030853
     atom   14 type  2   force =    -0.00000000   -0.00012908    0.00030853
     atom   15 type  2   force =    -0.00000000    0.00012908    0.00030853
     atom   16 type  2   force =     0.00000000   -0.00012908   -0.00030853
     atom   17 type  2   force =    -0.00000000   -0.00022393    0.00016458
     atom   18 type  2   force =     0.00000000    0.00022393   -0.00016458
     atom   19 type  2   force =     0.00000000   -0.00022393   -0.00016458
     atom   20 type  2   force =     0.00000000    0.00022393    0.00016458

     Total force =     0.002380     Total SCF correction =     0.001485
     SCF correction compared to forces is large: reduce conv_thr to get better values

     Computing stress (Cartesian axis) and pressure

          total   stress  (Ry/bohr**3)                   (kbar)     P=        0.02
   0.00000028   0.00000000   0.00000000            0.04        0.00        0.00
   0.00000000   0.00000044   0.00000000            0.00        0.06        0.00
   0.00000000   0.00000000  -0.00000037            0.00        0.00       -0.05

     kinetic stress (kbar)   5524.27      0.00      0.00
                                0.00   5535.31      0.00
                                0.00      0.00   5529.28

     local   stress (kbar)  -4517.30      0.00     -0.00
                                0.00  -1884.72      0.00
                               -0.00      0.00   -991.34

     nonloc. stress (kbar)   1140.22      0.00      0.00
                                0.00   1138.57      0.00
                                0.00      0.00   1141.23

     hartree stress (kbar)   3402.73      0.00      0.00
                                0.00   2188.74      0.00
                                0.00      0.00   1719.10

     exc-cor stress (kbar)   5446.86     -0.00     -0.00
                               -0.00   5446.51      0.00
                               -0.00      0.00   5446.94

     corecor stress (kbar)  -7211.93     -0.00      0.00
                               -0.00  -7212.19     -0.00
                                0.00     -0.00  -7212.17

     ewald   stress (kbar)  -3784.80     -0.00     -0.00
                               -0.00  -5212.16      0.00
                               -0.00      0.00  -5633.09

     hubbard stress (kbar)      0.00      0.00      0.00
                                0.00      0.00      0.00
                                0.00      0.00      0.00

     DFT-D   stress (kbar)      0.00      0.00      0.00
                                0.00      0.00      0.00
                                0.00      0.00      0.00

     XDM     stress (kbar)      0.00      0.00      0.00
                                0.00      0.00      0.00
                                0.00      0.00      0.00

     dft-nl  stress (kbar)      0.00      0.00      0.00
                                0.00      0.00      0.00
                                0.00      0.00      0.00

     TS-vdW  stress (kbar)      0.00      0.00      0.00
                                0.00      0.00      0.00
                                0.00      0.00      0.00

     Writing output data file ./out/CsSnI3.save/

     General routines

     Parallel routines

     PAW routines

   This run was terminated on:  11:42:31  15Jan2021

   JOB DONE.