     Program PWSCF v.6.7MaX starts on 15Jan2021 at 18: 1:54

     R & G space division:  proc/nbgrp/npool/nimage =     128
     Waiting for input...
     Reading input from standard input

     Current dimensions of program PWSCF are:
     Max number of different atomic species (ntypx) = 10
     Max number of k-points (npk) =  40000
     Max angular momentum in pseudopotentials (lmaxx) =  3
     file Sn.pbe-dn-kjpaw_psl.1.0.0.UPF: wavefunction(s)  5S 5P 4D renormalized
     file I.pbe-n-kjpaw_psl.1.0.0.UPF: wavefunction(s)  5S renormalized
     file Cs.pbe-spn-kjpaw_psl.1.0.0.UPF: wavefunction(s)  5S 6S renormalized

     Subspace diagonalization in iterative solution of the eigenvalue problem:
     a serial algorithm will be used

     Message from routine setup:
     using ibrav=0 with symmetry is DISCOURAGED, use correct ibrav instead

     Title:
     CsSnI3

     bravais-lattice index     =            0
     lattice parameter (alat)  =       9.1317  a.u.
     unit-cell volume          =    6370.5385 (a.u.)^3
     number of atoms/cell      =           20
     number of atomic types    =            3
     number of electrons       =       176.00
     number of Kohn-Sham states=           89
     kinetic-energy cutoff     =      70.0000  Ry
     charge density cutoff     =     280.0000  Ry
     scf convergence threshold =      1.0E-07
     mixing beta               =       0.5000
     number of iterations used =            8  plain     mixing
     Exchange-correlation= SLA  PW   PBX  PBC
                           (   1   4   3   4   0   0   0)

     celldm(1)=   9.131705  celldm(2)=   0.000000  celldm(3)=   0.000000
     celldm(4)=   0.000000  celldm(5)=   0.000000  celldm(6)=   0.000000

     crystal axes: (cart. coord. in units of alat)
               a(1) = (   1.000000   0.000000   0.000000 )
               a(2) = (   0.000000   2.227728   0.000000 )
               a(3) = (   0.000000   0.000000   3.755420 )

     reciprocal axes: (cart. coord. in units 2 pi/alat)
               b(1) = (  1.000000  0.000000  0.000000 )
               b(2) = (  0.000000  0.448888  0.000000 )
               b(3) = (  0.000000  0.000000  0.266282 )

     PseudoPot. # 1 for Sn read from file:
     ../../pseudo/Sn.pbe-dn-kjpaw_psl.1.0.0.UPF
     MD5 check sum: 67f11dec737d427557dc41ea34975807
     Pseudo is Projector augmented-wave + core cor, Zval = 14.0
     Generated using &quot;atomic&quot; code by A. Dal Corso  v.6.3
     Shape of augmentation charge: PSQ
     Using radial grid of 1243 points,  6 beta functions with:
                l(1) =   0
                l(2) =   0
                l(3) =   1
                l(4) =   1
                l(5) =   2
                l(6) =   2
     Q(r) pseudized with 0 coefficients

     PseudoPot. # 2 for I  read from file:
     ../../pseudo/I.pbe-n-kjpaw_psl.1.0.0.UPF
     MD5 check sum: cd3d296c3308a581e1559a0c8a554cb5
     Pseudo is Projector augmented-wave + core cor, Zval =  7.0
     Generated using &quot;atomic&quot; code by A. Dal Corso  v.6.3
     Shape of augmentation charge: PSQ
     Using radial grid of 1247 points,  6 beta functions with:
                l(1) =   0
                l(2) =   0
                l(3) =   1
                l(4) =   1
                l(5) =   2
                l(6) =   2
     Q(r) pseudized with 0 coefficients

     PseudoPot. # 3 for Cs read from file:
     ../../pseudo/Cs.pbe-spn-kjpaw_psl.1.0.0.UPF
     MD5 check sum: b82c75cc2e1f4ff73b6412cffeb9c584
     Pseudo is Projector augmented-wave + core cor, Zval =  9.0
     Generated using &quot;atomic&quot; code by A. Dal Corso  v.6.4.1
     Shape of augmentation charge: PSQ
     Using radial grid of 1251 points,  9 beta functions with:
                l(1) =   0
                l(2) =   0
                l(3) =   0
                l(4) =   1
                l(5) =   1
                l(6) =   2
                l(7) =   2
                l(8) =   3
                l(9) =   3
     Q(r) pseudized with 0 coefficients

     atomic species   valence    mass     pseudopotential
        Sn            14.00   118.70000     Sn( 1.00)
        I              7.00   126.90000     I ( 1.00)
        Cs             9.00   132.90000     Cs( 1.00)

      8 Sym. Ops., with inversion, found ( 6 have fractional translation)

                                    s                        frac. trans.

      isym =  1     identity

 cryst.   s( 1) = (     1          0          0      )
                  (     0          1          0      )
                  (     0          0          1      )

 cart.    s( 1) = (  1.0000000  0.0000000  0.0000000 )
                  (  0.0000000  1.0000000  0.0000000 )
                  (  0.0000000  0.0000000  1.0000000 )

      isym =  2     180 deg rotation - cart. axis [0,0,1]

 cryst.   s( 2) = (    -1          0          0      )    f =(  0.0000000 )
                  (     0         -1          0      )       (  0.5000000 )
                  (     0          0          1      )       (  0.5000000 )

 cart.    s( 2) = ( -1.0000000  0.0000000  0.0000000 )    f =(  0.0000000 )
                  (  0.0000000 -1.0000000  0.0000000 )       (  1.1138638 )
                  (  0.0000000  0.0000000  1.0000000 )       (  1.8777098 )

[...]

      isym =  4     180 deg rotation - cart. axis [1,0,0]

[...]

      isym =  5     inversion

 cryst.   s( 5) = (    -1          0          0      )
                  (     0         -1          0      )
                  (     0          0         -1      )

 cart.    s( 5) = ( -1.0000000  0.0000000  0.0000000 )
                  (  0.0000000 -1.0000000  0.0000000 )
                  (  0.0000000  0.0000000 -1.0000000 )

      isym =  6     inv. 180 deg rotation - cart. axis [0,0,1]

[...]

      isym =  8     inv. 180 deg rotation - cart. axis [1,0,0]

 cryst.   s( 8) = (    -1          0          0      )    f =(  0.5000000 )
                  (     0          1          0      )       (  0.0000000 )
                  (     0          0          1      )       (  0.0000000 )

 cart.    s( 8) = ( -1.0000000  0.0000000  0.0000000 )    f =(  0.5000000 )
                  (  0.0000000  1.0000000  0.0000000 )       (  0.0000000 )
                  (  0.0000000  0.0000000  1.0000000 )       (  0.0000000 )

   Cartesian axes

     site n.     atom                  positions (alat units)
         1           Cs  tau(   1) = (   0.2500000   0.1859640   2.5168147  )
         2           Cs  tau(   2) = (   0.7500000   2.0417636   1.2386050  )
         3           Cs  tau(   3) = (   0.2500000   1.2998278   3.1163149  )
         4           Cs  tau(   4) = (   0.7500000   0.9278998   0.6391048  )
         5           Sn  tau(   5) = (   0.2500000   0.7615710   1.6485466  )
         6           Sn  tau(   6) = (   0.7500000   1.4661567   2.1068731  )
         7           Sn  tau(   7) = (   0.2500000   1.8754348   0.2291632  )
         8           Sn  tau(   8) = (   0.7500000   0.3522928   3.5262565  )
         9           I   tau(   9) = (   0.7500000   0.0581437   0.4202578  )
        10           I   tau(  10) = (   0.2500000   2.1695839   3.3351619  )
        11           I   tau(  11) = (   0.7500000   1.1720075   1.4574521  )
        12           I   tau(  12) = (   0.2500000   1.0557201   2.2979676  )
        13           I   tau(  13) = (   0.7500000   0.6531118   2.9738192  )
        14           I   tau(  14) = (   0.2500000   1.5746158   0.7816005  )
        15           I   tau(  15) = (   0.7500000   1.7669756   2.6593103  )
        16           I   tau(  16) = (   0.2500000   0.4607520   1.0961094  )
        17           I   tau(  17) = (   0.7500000   0.3753632   1.8734812  )
        18           I   tau(  18) = (   0.2500000   1.8523644   1.8819384  )
        19           I   tau(  19) = (   0.7500000   1.4892270   0.0042286  )
        20           I   tau(  20) = (   0.2500000   0.7385006   3.7511911  )

   Crystallographic axes

     site n.     atom                  positions (cryst. coord.)
         1           Cs  tau(   1) = (  0.2500000  0.0834770  0.6701820  )
         2           Cs  tau(   2) = (  0.7500000  0.9165230  0.3298180  )
         3           Cs  tau(   3) = (  0.2500000  0.5834770  0.8298180  )
         4           Cs  tau(   4) = (  0.7500000  0.4165230  0.1701820  )
         5           Sn  tau(   5) = (  0.2500000  0.3418600  0.4389780  )
         6           Sn  tau(   6) = (  0.7500000  0.6581400  0.5610220  )
         7           Sn  tau(   7) = (  0.2500000  0.8418600  0.0610220  )
         8           Sn  tau(   8) = (  0.7500000  0.1581400  0.9389780  )
         9           I   tau(   9) = (  0.7500000  0.0261000  0.1119070  )
        10           I   tau(  10) = (  0.2500000  0.9739000  0.8880930  )
        11           I   tau(  11) = (  0.7500000  0.5261000  0.3880930  )
        12           I   tau(  12) = (  0.2500000  0.4739000  0.6119070  )
        13           I   tau(  13) = (  0.7500000  0.2931740  0.7918740  )
        14           I   tau(  14) = (  0.2500000  0.7068260  0.2081260  )
        15           I   tau(  15) = (  0.7500000  0.7931740  0.7081260  )
        16           I   tau(  16) = (  0.2500000  0.2068260  0.2918740  )
        17           I   tau(  17) = (  0.7500000  0.1684960  0.4988740  )
        18           I   tau(  18) = (  0.2500000  0.8315040  0.5011260  )
        19           I   tau(  19) = (  0.7500000  0.6684960  0.0011260  )
        20           I   tau(  20) = (  0.2500000  0.3315040  0.9988740  )

     number of k points=    27
                       cart. coord. in units 2pi/alat
        k(    1) = (   0.0000000   0.0000000   0.0000000), wk =   0.0160000
        k(    2) = (   0.0000000   0.0000000   0.0532564), wk =   0.0320000
        k(    3) = (   0.0000000   0.0000000   0.1065127), wk =   0.0320000
        k(    4) = (   0.0000000   0.0897776   0.0000000), wk =   0.0320000
        k(    5) = (   0.0000000   0.0897776   0.0532564), wk =   0.0640000
        k(    6) = (   0.0000000   0.0897776   0.1065127), wk =   0.0640000
        k(    7) = (   0.0000000   0.1795552   0.0000000), wk =   0.0320000
        k(    8) = (   0.0000000   0.1795552   0.0532564), wk =   0.0640000
        k(    9) = (   0.0000000   0.1795552   0.1065127), wk =   0.0640000
        k(   10) = (   0.2000000   0.0000000   0.0000000), wk =   0.0320000
        k(   11) = (   0.2000000   0.0000000   0.0532564), wk =   0.0640000
        k(   12) = (   0.2000000   0.0000000   0.1065127), wk =   0.0640000
        k(   13) = (   0.2000000   0.0897776   0.0000000), wk =   0.0640000
        k(   14) = (   0.2000000   0.0897776   0.0532564), wk =   0.1280000
        k(   15) = (   0.2000000   0.0897776   0.1065127), wk =   0.1280000
        k(   16) = (   0.2000000   0.1795552   0.0000000), wk =   0.0640000
        k(   17) = (   0.2000000   0.1795552   0.0532564), wk =   0.1280000
        k(   18) = (   0.2000000   0.1795552   0.1065127), wk =   0.1280000
        k(   19) = (   0.4000000   0.0000000   0.0000000), wk =   0.0320000
        k(   20) = (   0.4000000   0.0000000   0.0532564), wk =   0.0640000
        k(   21) = (   0.4000000   0.0000000   0.1065127), wk =   0.0640000
[...]
     1.0000   1.0000   1.0000   1.0000   1.0000   1.0000   1.0000   1.0000
     1.0000   1.0000   1.0000   1.0000   1.0000   1.0000   1.0000   1.0000
     1.0000   1.0000   1.0000   1.0000   1.0000   1.0000   1.0000   1.0000
     1.0000   1.0000   1.0000   1.0000   1.0000   1.0000   1.0000   1.0000
     1.0000   1.0000   1.0000   1.0000   1.0000   1.0000   1.0000   1.0000
     1.0000   1.0000   1.0000   1.0000   1.0000   1.0000   1.0000   1.0000
     0.0000

[...]

          k = 0.4000 0.1796 0.1065 ( 63035 PWs)   bands (ev):

   -17.8682 -17.8682 -17.8681 -17.8681 -17.8671 -17.8671 -17.8670 -17.8670
   -17.8559 -17.8559 -17.8557 -17.8557 -17.8484 -17.8484 -17.8480 -17.8480
   -17.8447 -17.8447 -17.8443 -17.8443 -17.7722 -17.7722 -17.7720 -17.7720
    -8.5471  -8.5463  -8.4754  -8.4747  -8.3561  -8.3553  -8.2961  -8.2954
    -8.2779  -8.2755  -8.2704  -8.2683  -4.7476  -4.7461  -4.7289  -4.7272
    -4.5991  -4.5985  -4.5948  -4.5940  -4.5720  -4.5698  -4.5644  -4.5629
    -3.1674  -3.1642  -3.1314  -3.1290   0.1943   0.1981   0.2689   0.2700
     0.4721   0.4753   0.5284   0.5353   0.7091   0.7156   0.9977   1.0102
     1.3415   1.3493   1.5065   1.5106   1.6620   1.6788   1.7245   1.7532
     1.7861   1.7980   1.8096   1.8215   1.9151   1.9237   1.9651   1.9946
     2.0761   2.0997   2.1594   2.1705   2.7854   2.8332   2.9160   2.9281
     6.0676

     occupation numbers
     1.0000   1.0000   1.0000   1.0000   1.0000   1.0000   1.0000   1.0000
     1.0000   1.0000   1.0000   1.0000   1.0000   1.0000   1.0000   1.0000
     1.0000   1.0000   1.0000   1.0000   1.0000   1.0000   1.0000   1.0000
     1.0000   1.0000   1.0000   1.0000   1.0000   1.0000   1.0000   1.0000
     1.0000   1.0000   1.0000   1.0000   1.0000   1.0000   1.0000   1.0000
     1.0000   1.0000   1.0000   1.0000   1.0000   1.0000   1.0000   1.0000
     1.0000   1.0000   1.0000   1.0000   1.0000   1.0000   1.0000   1.0000
     1.0000   1.0000   1.0000   1.0000   1.0000   1.0000   1.0000   1.0000
     1.0000   1.0000   1.0000   1.0000   1.0000   1.0000   1.0000   1.0000
     1.0000   1.0000   1.0000   1.0000   1.0000   1.0000   1.0000   1.0000
     1.0000   1.0000   1.0000   1.0000   1.0000   1.0000   1.0000   1.0000
     0.0000

     highest occupied, lowest unoccupied level (ev):     3.0571    5.1394

!    total energy              =   -7979.66446584 Ry

     total all-electron energy =   -282510.819178 Ry
     estimated scf accuracy    <       0.00000006 Ry

     The total energy is the sum of the following terms:
     one-electron contribution =    -463.68145061 Ry
     hartree contribution      =     316.61804260 Ry
     xc contribution           =    -465.89739601 Ry
     ewald contribution        =    -633.56960439 Ry
     one-center paw contrib.   =   -6733.13405742 Ry
      -> PAW hartree energy AE =      25.63374590 Ry
      -> PAW hartree energy PS =     -25.52418614 Ry
      -> PAW xc energy AE      =    -383.53024832 Ry
      -> PAW xc energy PS      =      20.51491854 Ry
      -> total E_H with PAW    =     316.72760236 Ry
      -> total E_XC with PAW   =    -828.91272578 Ry

     convergence has been achieved in  12 iterations

     Forces acting on atoms (cartesian axes, Ry/au):

     atom    1 type  3   force =     0.00000000   -0.00062443    0.00037371
     atom    2 type  3   force =     0.00000000    0.00062443   -0.00037371
     atom    3 type  3   force =     0.00000000   -0.00062443   -0.00037371
     atom    4 type  3   force =    -0.00000000    0.00062443    0.00037371
     atom    5 type  1   force =     0.00000000   -0.00066179    0.00029575
     atom    6 type  1   force =     0.00000000    0.00066179   -0.00029575
     atom    7 type  1   force =     0.00000000   -0.00066179   -0.00029575
     atom    8 type  1   force =     0.00000000    0.00066179    0.00029575
     atom    9 type  2   force =     0.00000000    0.00004458   -0.00024575
     atom   10 type  2   force =     0.00000000   -0.00004458    0.00024575
     atom   11 type  2   force =     0.00000000    0.00004458    0.00024575
     atom   12 type  2   force =     0.00000000   -0.00004458   -0.00024575
     atom   13 type  2   force =     0.00000000   -0.00017889   -0.00040759
     atom   14 type  2   force =     0.00000000    0.00017889    0.00040759
     atom   15 type  2   force =     0.00000000   -0.00017889    0.00040759
     atom   16 type  2   force =     0.00000000    0.00017889   -0.00040759
     atom   17 type  2   force =     0.00000000   -0.00049360    0.00034415
     atom   18 type  2   force =     0.00000000    0.00049360   -0.00034415
     atom   19 type  2   force =     0.00000000   -0.00049360   -0.00034415
     atom   20 type  2   force =     0.00000000    0.00049360    0.00034415
     The non-local contrib.  to forces
     atom    1 type  3   force =     0.00000000    0.00220948   -0.00222802
     atom    2 type  3   force =     0.00000000   -0.00220948    0.00222802
     atom    3 type  3   force =     0.00000000    0.00220948    0.00222802
     atom    4 type  3   force =     0.00000000   -0.00220948   -0.00222802
     atom    5 type  1   force =    -0.00000000   -0.08721502   -0.13183173
     atom    6 type  1   force =     0.00000000    0.08721502    0.13183173
     atom    7 type  1   force =     0.00000000   -0.08721502    0.13183173
     atom    8 type  1   force =     0.00000000    0.08721502   -0.13183173
     atom    9 type  2   force =     0.00000000   -0.04834768   -0.04731370
     atom   10 type  2   force =    -0.00000000    0.04834768    0.04731370
     atom   11 type  2   force =     0.00000000   -0.04834768    0.04731370
     atom   12 type  2   force =    -0.00000000    0.04834768   -0.04731370
     atom   13 type  2   force =    -0.00000000   -0.03285888    0.05566618
     atom   14 type  2   force =     0.00000000    0.03285888   -0.05566618
     atom   15 type  2   force =     0.00000000   -0.03285888   -0.05566618
     atom   16 type  2   force =     0.00000000    0.03285888    0.05566618
     atom   17 type  2   force =     0.00000000    0.05554129   -0.01657083
     atom   18 type  2   force =     0.00000000   -0.05554129    0.01657083
     atom   19 type  2   force =     0.00000000    0.05554129    0.01657083
     atom   20 type  2   force =     0.00000000   -0.05554129   -0.01657083
     The ionic contribution  to forces
     atom    1 type  3   force =    -0.00000000    0.02273773    0.42856976
     atom    2 type  3   force =    -0.00000000   -0.02273773   -0.42856976
     atom    3 type  3   force =    -0.00000000    0.02273773   -0.42856976
     atom    4 type  3   force =     0.00000000   -0.02273773    0.42856976
     atom    5 type  1   force =     0.00000000   -2.44382135   -1.60292983
     atom    6 type  1   force =     0.00000000    2.44382135    1.60292983
     atom    7 type  1   force =    -0.00000000   -2.44382135    1.60292983
     atom    8 type  1   force =     0.00000000    2.44382135   -1.60292983
     atom    9 type  2   force =    -0.00000000    3.00608891    5.13288893
     atom   10 type  2   force =     0.00000000   -3.00608891   -5.13288893
     atom   11 type  2   force =    -0.00000000    3.00608891   -5.13288893
     atom   12 type  2   force =    -0.00000000   -3.00608891    5.13288893
     atom   13 type  2   force =     0.00000000    2.02422849   -3.75281499
     atom   14 type  2   force =     0.00000000   -2.02422849    3.75281499
     atom   15 type  2   force =    -0.00000000    2.02422849    3.75281499
     atom   16 type  2   force =    -0.00000000   -2.02422849   -3.75281499
     atom   17 type  2   force =     0.00000000   -4.20564473    2.10270404
     atom   18 type  2   force =    -0.00000000    4.20564473   -2.10270404
     atom   19 type  2   force =     0.00000000   -4.20564473   -2.10270404
     atom   20 type  2   force =    -0.00000000    4.20564473    2.10270404
     The local contribution  to forces
     atom    1 type  3   force =     0.00000000   -0.02540287   -0.42616281
     atom    2 type  3   force =    -0.00000000    0.02540287    0.42616281
     atom    3 type  3   force =     0.00000000   -0.02540287    0.42616281
     atom    4 type  3   force =    -0.00000000    0.02540287   -0.42616281
     atom    5 type  1   force =    -0.00000000    2.53015408    1.73498635
     atom    6 type  1   force =    -0.00000000   -2.53015408   -1.73498635
     atom    7 type  1   force =    -0.00000000    2.53015408   -1.73498635
     atom    8 type  1   force =    -0.00000000   -2.53015408    1.73498635
     atom    9 type  2   force =     0.00000000   -2.96415013   -5.09237362
     atom   10 type  2   force =    -0.00000000    2.96415013    5.09237362
     atom   11 type  2   force =     0.00000000   -2.96415013    5.09237362
     atom   12 type  2   force =    -0.00000000    2.96415013   -5.09237362
     atom   13 type  2   force =    -0.00000000   -1.99590134    3.70421044
     atom   14 type  2   force =    -0.00000000    1.99590134   -3.70421044
     atom   15 type  2   force =     0.00000000   -1.99590134   -3.70421044
     atom   16 type  2   force =    -0.00000000    1.99590134    3.70421044
     atom   17 type  2   force =     0.00000000    4.15725696   -2.08829525
     atom   18 type  2   force =    -0.00000000   -4.15725696    2.08829525
     atom   19 type  2   force =     0.00000000    4.15725696    2.08829525
     atom   20 type  2   force =    -0.00000000   -4.15725696   -2.08829525
     The core correction contribution to forces
     atom    1 type  3   force =     0.00000000   -0.00017579    0.00018647
     atom    2 type  3   force =     0.00000000    0.00017579   -0.00018647
     atom    3 type  3   force =     0.00000000   -0.00017579   -0.00018647
     atom    4 type  3   force =     0.00000000    0.00017579    0.00018647
     atom    5 type  1   force =    -0.00000000    0.00017709    0.00007987
     atom    6 type  1   force =    -0.00000000   -0.00017709   -0.00007987
     atom    7 type  1   force =     0.00000000    0.00017709   -0.00007987
     atom    8 type  1   force =    -0.00000000   -0.00017709    0.00007987
     atom    9 type  2   force =    -0.00000000    0.00643176    0.00651943
     atom   10 type  2   force =     0.00000000   -0.00643176   -0.00651943
     atom   11 type  2   force =     0.00000000    0.00643176   -0.00651943
     atom   12 type  2   force =     0.00000000   -0.00643176    0.00651943
     atom   13 type  2   force =    -0.00000000    0.00434047   -0.00742956
     atom   14 type  2   force =     0.00000000   -0.00434047    0.00742956
     atom   15 type  2   force =     0.00000000    0.00434047    0.00742956
     atom   16 type  2   force =     0.00000000   -0.00434047   -0.00742956
     atom   17 type  2   force =    -0.00000000   -0.00762258    0.00248186
     atom   18 type  2   force =     0.00000000    0.00762258   -0.00248186
     atom   19 type  2   force =    -0.00000000   -0.00762258   -0.00248186
     atom   20 type  2   force =     0.00000000    0.00762258    0.00248186
     The Hubbard contrib.    to forces
     atom    1 type  3   force =     0.00000000    0.00000000    0.00000000
     atom    2 type  3   force =     0.00000000    0.00000000    0.00000000
     atom    3 type  3   force =     0.00000000    0.00000000    0.00000000
     atom    4 type  3   force =     0.00000000    0.00000000    0.00000000
     atom    5 type  1   force =     0.00000000    0.00000000    0.00000000
     atom    6 type  1   force =     0.00000000    0.00000000    0.00000000
     atom    7 type  1   force =     0.00000000    0.00000000    0.00000000
     atom    8 type  1   force =     0.00000000    0.00000000    0.00000000
     atom    9 type  2   force =     0.00000000    0.00000000    0.00000000
     atom   10 type  2   force =     0.00000000    0.00000000    0.00000000
     atom   11 type  2   force =     0.00000000    0.00000000    0.00000000
     atom   12 type  2   force =     0.00000000    0.00000000    0.00000000
     atom   13 type  2   force =     0.00000000    0.00000000    0.00000000
     atom   14 type  2   force =     0.00000000    0.00000000    0.00000000
     atom   15 type  2   force =     0.00000000    0.00000000    0.00000000
     atom   16 type  2   force =     0.00000000    0.00000000    0.00000000
     atom   17 type  2   force =     0.00000000    0.00000000    0.00000000
     atom   18 type  2   force =     0.00000000    0.00000000    0.00000000
     atom   19 type  2   force =     0.00000000    0.00000000    0.00000000
     atom   20 type  2   force =     0.00000000    0.00000000    0.00000000
     The SCF correction term to forces
     atom    1 type  3   force =    -0.00000000    0.00000702    0.00000830
     atom    2 type  3   force =     0.00000000   -0.00000702   -0.00000830
     atom    3 type  3   force =    -0.00000000    0.00000702   -0.00000830
     atom    4 type  3   force =     0.00000000   -0.00000702    0.00000830
     atom    5 type  1   force =    -0.00000000    0.00004341   -0.00000890
     atom    6 type  1   force =    -0.00000000   -0.00004341    0.00000890
     atom    7 type  1   force =     0.00000000    0.00004341    0.00000890
     atom    8 type  1   force =    -0.00000000   -0.00004341   -0.00000890
     atom    9 type  2   force =     0.00000000    0.00002172    0.00003320
     atom   10 type  2   force =     0.00000000   -0.00002172   -0.00003320
     atom   11 type  2   force =     0.00000000    0.00002172   -0.00003320
     atom   12 type  2   force =    -0.00000000   -0.00002172    0.00003320
     atom   13 type  2   force =    -0.00000000    0.00001237   -0.00003966
     atom   14 type  2   force =     0.00000000   -0.00001237    0.00003966
     atom   15 type  2   force =    -0.00000000    0.00001237    0.00003966
     atom   16 type  2   force =     0.00000000   -0.00001237   -0.00003966
     atom   17 type  2   force =     0.00000000   -0.00002454    0.00002433
     atom   18 type  2   force =    -0.00000000    0.00002454   -0.00002433
     atom   19 type  2   force =     0.00000000   -0.00002454   -0.00002433
     atom   20 type  2   force =     0.00000000    0.00002454    0.00002433

     Total force =     0.002590     Total SCF correction =     0.000162

     Computing stress (Cartesian axis) and pressure

          total   stress  (Ry/bohr**3)                   (kbar)     P=       -0.87
  -0.00000559   0.00000000   0.00000000           -0.82        0.00        0.00
   0.00000000  -0.00000572   0.00000000            0.00       -0.84        0.00
   0.00000000   0.00000000  -0.00000649            0.00        0.00       -0.95

     kinetic stress (kbar)   5523.26      0.00      0.00
                                0.00   5534.30      0.00
                                0.00      0.00   5528.27

     local   stress (kbar)  -4517.93      0.00      0.00
                                0.00  -1885.46      0.00
                                0.00      0.00   -992.13

     nonloc. stress (kbar)   1141.37      0.00      0.00
                                0.00   1139.70      0.00
                                0.00      0.00   1142.36

     hartree stress (kbar)   3402.85     -0.00     -0.00
                               -0.00   2188.96      0.00
                               -0.00      0.00   1719.37

     exc-cor stress (kbar)   5446.68     -0.00     -0.00
                               -0.00   5446.32      0.00
                               -0.00      0.00   5446.76

     corecor stress (kbar)  -7212.25     -0.00      0.00
                               -0.00  -7212.51     -0.00
                                0.00     -0.00  -7212.50

     ewald   stress (kbar)  -3784.80      0.00     -0.00
                                0.00  -5212.16      0.00
                               -0.00      0.00  -5633.09

     hubbard stress (kbar)      0.00      0.00      0.00
                                0.00      0.00      0.00
                                0.00      0.00      0.00

     DFT-D   stress (kbar)      0.00      0.00      0.00
                                0.00      0.00      0.00
                                0.00      0.00      0.00

     XDM     stress (kbar)      0.00      0.00      0.00
                                0.00      0.00      0.00
                                0.00      0.00      0.00

     dft-nl  stress (kbar)      0.00      0.00      0.00
                                0.00      0.00      0.00
                                0.00      0.00      0.00

     TS-vdW  stress (kbar)      0.00      0.00      0.00
                                0.00      0.00      0.00
                                0.00      0.00      0.00

     Writing output data file ./out1/CsSnI3.save/

     General routines

     Parallel routines

     PAW routines

   This run was terminated on:  18:21:41  15Jan2021

   JOB DONE.