     Program PWSCF v.6.7MaX starts on 31Jan2021 at  9:31:11

     R & G space division:  proc/nbgrp/npool/nimage =      48
     Waiting for input...
     Reading input from standard input

     Current dimensions of program PWSCF are:
     Max number of different atomic species (ntypx) = 10
     Max number of k-points (npk) =  40000
     Max angular momentum in pseudopotentials (lmaxx) =  3
     Message from routine iosys:
     BEWARE:  force calculation with tetrahedra (not recommanded)
     Message from routine iosys:
     BEWARE: stress calculation with tetrahedra (not recommanded)
     file Cs.rel-pbesol-spn-rrkjus_psl.1.0.0.UPF: wavefunction(s)  5S 6S renormalized
     file Sn.rel-pbesol-dn-rrkjus_psl.1.0.0.UPF: wavefunction(s)  5S 4D 4D renormalized
     file I.rel-pbesol-n-rrkjus_psl.1.0.0.UPF: wavefunction(s)  5S renormalized

     Subspace diagonalization in iterative solution of the eigenvalue problem:
     a serial algorithm will be used

     Title:
     CsSnI3

     bravais-lattice index     =            8
     lattice parameter (alat)  =       9.1317  a.u.
     unit-cell volume          =    6370.5385 (a.u.)^3
     number of atoms/cell      =           20
     number of atomic types    =            3
     number of electrons       =       176.00
     number of Kohn-Sham states=          212
     kinetic-energy cutoff     =      70.0000  Ry
     charge density cutoff     =     350.0000  Ry
     scf convergence threshold =      1.0E-06
     mixing beta               =       0.7000
     number of iterations used =            8  plain     mixing
     Exchange-correlation= PBESOL
                           (   1   4  10   8   0   0   0)
     Non magnetic calculation with spin-orbit

     celldm(1)=   9.131705  celldm(2)=   2.227728  celldm(3)=   3.755420
     celldm(4)=   0.000000  celldm(5)=   0.000000  celldm(6)=   0.000000

     crystal axes: (cart. coord. in units of alat)
               a(1) = (   1.000000   0.000000   0.000000 )
               a(2) = (   0.000000   2.227728   0.000000 )
               a(3) = (   0.000000   0.000000   3.755420 )

     reciprocal axes: (cart. coord. in units 2 pi/alat)
               b(1) = (  1.000000  0.000000  0.000000 )
               b(2) = (  0.000000  0.448888  0.000000 )
               b(3) = (  0.000000  0.000000  0.266282 )

     PseudoPot. # 1 for Cs read from file:
     /scratch/cmalosso/degironcoli/pseudo/pseudo-usp/Cs.rel-pbesol-spn-rrkjus_psl.1.0.0.UPF
     MD5 check sum: 846889b67fb1b19751b5b37931589d70
     Pseudo is Ultrasoft + core correction, Zval =  9.0
     Generated using &quot;atomic&quot; code by A. Dal Corso  v.6.4.1
     Using radial grid of 1251 points, 15 beta functions with:
                l(1) =   0
                l(2) =   0
                l(3) =   0
                l(4) =   1
                l(5) =   1
                l(6) =   1
                l(7) =   1
                l(8) =   2
                l(9) =   2
               l(10) =   2
               l(11) =   2
               l(12) =   3
               l(13) =   3
               l(14) =   3
               l(15) =   3
     Q(r) pseudized with 0 coefficients

     PseudoPot. # 2 for Sn read from file:
     /scratch/cmalosso/degironcoli/pseudo/pseudo-usp/Sn.rel-pbesol-dn-rrkjus_psl.1.0.0.UPF
     MD5 check sum: c1cf6ea56b96a3656bdf0d1db379e093
     Pseudo is Ultrasoft + core correction, Zval = 14.0
     Generated using &quot;atomic&quot; code by A. Dal Corso  v.6.3
     Using radial grid of 1243 points, 10 beta functions with:
                l(1) =   0
                l(2) =   0
                l(3) =   1
                l(4) =   1
                l(5) =   1
                l(6) =   1
                l(7) =   2
                l(8) =   2
                l(9) =   2
               l(10) =   2
     Q(r) pseudized with 0 coefficients

     PseudoPot. # 3 for I  read from file:
     /scratch/cmalosso/degironcoli/pseudo/pseudo-usp/I.rel-pbesol-n-rrkjus_psl.1.0.0.UPF
     MD5 check sum: 0f96c6bfb1b448f280658f96eb466b08
     Pseudo is Ultrasoft + core correction, Zval =  7.0
     Generated using &quot;atomic&quot; code by A. Dal Corso  v.6.3
     Using radial grid of 1247 points, 10 beta functions with:
                l(1) =   0
                l(2) =   0
                l(3) =   1
                l(4) =   1
                l(5) =   1
                l(6) =   1
                l(7) =   2
                l(8) =   2
                l(9) =   2
               l(10) =   2
     Q(r) pseudized with 0 coefficients

     atomic species   valence    mass     pseudopotential
        Cs             9.00   132.90000     Cs( 1.00)
        Sn            14.00   118.70000     Sn( 1.00)
        I              7.00   126.90000     I ( 1.00)

      8 Sym. Ops., with inversion, found ( 6 have fractional translation)

                                    s                        frac. trans.

      isym =  1     identity

 cryst.   s( 1) = (     1          0          0      )
                  (     0          1          0      )
                  (     0          0          1      )

 cart.    s( 1) = (  1.0000000  0.0000000  0.0000000 )
                  (  0.0000000  1.0000000  0.0000000 )
                  (  0.0000000  0.0000000  1.0000000 )

      isym =  2     180 deg rotation - cart. axis [0,0,1]

 cryst.   s( 2) = (    -1          0          0      )    f =(  0.0000000 )
                  (     0         -1          0      )       (  0.5000000 )
                  (     0          0          1      )       (  0.5000000 )

 cart.    s( 2) = ( -1.0000000  0.0000000  0.0000000 )    f =(  0.0000000 )
                  (  0.0000000 -1.0000000  0.0000000 )       (  1.1138638 )
                  (  0.0000000  0.0000000  1.0000000 )       (  1.8777098 )

[...]

      isym =  4     180 deg rotation - cart. axis [1,0,0]

[...]

      isym =  5     inversion

 cryst.   s( 5) = (    -1          0          0      )
                  (     0         -1          0      )
                  (     0          0         -1      )

 cart.    s( 5) = ( -1.0000000  0.0000000  0.0000000 )
                  (  0.0000000 -1.0000000  0.0000000 )
                  (  0.0000000  0.0000000 -1.0000000 )

      isym =  6     inv. 180 deg rotation - cart. axis [0,0,1]

[...]

      isym =  8     inv. 180 deg rotation - cart. axis [1,0,0]

 cryst.   s( 8) = (    -1          0          0      )    f =(  0.5000000 )
                  (     0          1          0      )       (  0.0000000 )
                  (     0          0          1      )       (  0.0000000 )

 cart.    s( 8) = ( -1.0000000  0.0000000  0.0000000 )    f =(  0.5000000 )
                  (  0.0000000  1.0000000  0.0000000 )       (  0.0000000 )
                  (  0.0000000  0.0000000  1.0000000 )       (  0.0000000 )

     double point group D_2h (mmm)
     there are 10 classes and  2 irreducible representations
     the character table:

       E     -E     C2    C2'  C2''  i     -i     s_v   s_v' s_v''
                   -C2   -C2'  -C2''             -s_v  -s_v' -s_v'
G_5+   2.00 -2.00  0.00  0.00  0.00  2.00 -2.00  0.00  0.00  0.00
G_5-   2.00 -2.00  0.00  0.00  0.00 -2.00  2.00  0.00  0.00  0.00

     the symmetry operations in each class and the name of the first element:

     E             1
          identity
     -E           -1
          identity E
      C2  -C2      2   -2
          180 deg rotation - cart. axis [0,0,1]
      C2' -C2'     4   -4
          180 deg rotation - cart. axis [1,0,0]
     C2'' -C2''    3   -3
          180 deg rotation - cart. axis [0,1,0]
     i             5
          inversion
     -i           -5
          inversion E
      s_v -s_v     6   -6
          inv. 180 deg rotation - cart. axis [0,0,1]
      s_v'-s_v'    8   -8
          inv. 180 deg rotation - cart. axis [1,0,0]
     s_v''-s_v'    7   -7
          inv. 180 deg rotation - cart. axis [0,1,0]

   Cartesian axes

     site n.     atom                  positions (alat units)
         1           Cs  tau(   1) = (   0.2500000   0.1859640   2.5168147  )
         2           Cs  tau(   2) = (   0.7500000   2.0417636   1.2386050  )
         3           Cs  tau(   3) = (   0.2500000   1.2998278   3.1163149  )
         4           Cs  tau(   4) = (   0.7500000   0.9278998   0.6391048  )
         5           Sn  tau(   5) = (   0.2500000   0.7615710   1.6485466  )
         6           Sn  tau(   6) = (   0.7500000   1.4661567   2.1068731  )
         7           Sn  tau(   7) = (   0.2500000   1.8754348   0.2291632  )
         8           Sn  tau(   8) = (   0.7500000   0.3522928   3.5262565  )
         9           I   tau(   9) = (   0.7500000   0.0581437   0.4202578  )
        10           I   tau(  10) = (   0.2500000   2.1695839   3.3351619  )
        11           I   tau(  11) = (   0.7500000   1.1720075   1.4574521  )
        12           I   tau(  12) = (   0.2500000   1.0557201   2.2979676  )
        13           I   tau(  13) = (   0.7500000   0.6531118   2.9738192  )
        14           I   tau(  14) = (   0.2500000   1.5746158   0.7816005  )
        15           I   tau(  15) = (   0.7500000   1.7669756   2.6593103  )
        16           I   tau(  16) = (   0.2500000   0.4607520   1.0961094  )
        17           I   tau(  17) = (   0.7500000   0.3753632   1.8734812  )
        18           I   tau(  18) = (   0.2500000   1.8523644   1.8819384  )
        19           I   tau(  19) = (   0.7500000   1.4892270   0.0042286  )
        20           I   tau(  20) = (   0.2500000   0.7385006   3.7511911  )

   Crystallographic axes

     site n.     atom                  positions (cryst. coord.)
         1           Cs  tau(   1) = (  0.2500000  0.0834770  0.6701820  )
         2           Cs  tau(   2) = (  0.7500000  0.9165230  0.3298180  )
         3           Cs  tau(   3) = (  0.2500000  0.5834770  0.8298180  )
         4           Cs  tau(   4) = (  0.7500000  0.4165230  0.1701820  )
         5           Sn  tau(   5) = (  0.2500000  0.3418600  0.4389780  )
         6           Sn  tau(   6) = (  0.7500000  0.6581400  0.5610220  )
         7           Sn  tau(   7) = (  0.2500000  0.8418600  0.0610220  )
         8           Sn  tau(   8) = (  0.7500000  0.1581400  0.9389780  )
         9           I   tau(   9) = (  0.7500000  0.0261000  0.1119070  )
        10           I   tau(  10) = (  0.2500000  0.9739000  0.8880930  )
        11           I   tau(  11) = (  0.7500000  0.5261000  0.3880930  )
        12           I   tau(  12) = (  0.2500000  0.4739000  0.6119070  )
        13           I   tau(  13) = (  0.7500000  0.2931740  0.7918740  )
        14           I   tau(  14) = (  0.2500000  0.7068260  0.2081260  )
        15           I   tau(  15) = (  0.7500000  0.7931740  0.7081260  )
        16           I   tau(  16) = (  0.2500000  0.2068260  0.2918740  )
        17           I   tau(  17) = (  0.7500000  0.1684960  0.4988740  )
        18           I   tau(  18) = (  0.2500000  0.8315040  0.5011260  )
        19           I   tau(  19) = (  0.7500000  0.6684960  0.0011260  )
        20           I   tau(  20) = (  0.2500000  0.3315040  0.9988740  )

     number of k points=     1 (tetrahedron method)
[...]
     1.8793   1.8793   1.9583   1.9583   2.0064   2.0064   2.0775   2.0775
     2.1321   2.1321   2.1598   2.1598   2.3126   2.3126   2.3453   2.3453
     2.6536   2.6536   2.7508   2.7508   2.9421   2.9421   2.9898   2.9898
     5.6315   5.6315   5.7704   5.7704   5.8290   5.8290   5.9165   5.9165
     6.0209   6.0209   6.0514   6.0514   6.1516   6.1516   6.1978   6.1978
     6.3077   6.3077   6.3968   6.3968   6.4264   6.4264   6.5228   6.5228
     7.6130   7.6130   7.7171   7.7171   7.8594   7.8594   8.0148   8.0149
     8.1067   8.1074   8.2156   8.2163

     occupation numbers
     1.0000   1.0000   1.0000   1.0000   1.0000   1.0000   1.0000   1.0000
     1.0000   1.0000   1.0000   1.0000   1.0000   1.0000   1.0000   1.0000
     1.0000   1.0000   1.0000   1.0000   1.0000   1.0000   1.0000   1.0000
     1.0000   1.0000   1.0000   1.0000   1.0000   1.0000   1.0000   1.0000
     1.0000   1.0000   1.0000   1.0000   1.0000   1.0000   1.0000   1.0000
     1.0000   1.0000   1.0000   1.0000   1.0000   1.0000   1.0000   1.0000
     1.0000   1.0000   1.0000   1.0000   1.0000   1.0000   1.0000   1.0000
     1.0000   1.0000   1.0000   1.0000   1.0000   1.0000   1.0000   1.0000
     1.0000   1.0000   1.0000   1.0000   1.0000   1.0000   1.0000   1.0000
     1.0000   1.0000   1.0000   1.0000   1.0000   1.0000   1.0000   1.0000
     1.0000   1.0000   1.0000   1.0000   1.0000   1.0000   1.0000   1.0000
     1.0000   1.0000   1.0000   1.0000   1.0000   1.0000   1.0000   1.0000
     1.0000   1.0000   1.0000   1.0000   1.0000   1.0000   1.0000   1.0000
     1.0000   1.0000   1.0000   1.0000   1.0000   1.0000   1.0000   1.0000
     1.0000   1.0000   1.0000   1.0000   1.0000   1.0000   1.0000   1.0000
     1.0000   1.0000   1.0000   1.0000   1.0000   1.0000   1.0000   1.0000
     1.0000   1.0000   1.0000   1.0000   1.0000   1.0000   1.0000   1.0000
     1.0000   1.0000   1.0000   1.0000   1.0000   1.0000   1.0000   1.0000
     1.0000   1.0000   1.0000   1.0000   1.0000   1.0000   1.0000   1.0000
     1.0000   1.0000   1.0000   1.0000   1.0000   1.0000   1.0000   1.0000
     1.0000   1.0000   1.0000   1.0000   1.0000   1.0000   1.0000   1.0000
     1.0000   1.0000   1.0000   1.0000   1.0000   1.0000   1.0000   1.0000
     0.0000   0.0000   0.0000   0.0000   0.0000   0.0000   0.0000   0.0000
     0.0000   0.0000   0.0000   0.0000   0.0000   0.0000   0.0000   0.0000
     0.0000   0.0000   0.0000   0.0000   0.0000   0.0000   0.0000   0.0000
     0.0000   0.0000   0.0000   0.0000   0.0000   0.0000   0.0000   0.0000
     0.0000   0.0000   0.0000   0.0000

     the Fermi energy is     5.1076 ev

!    total energy              =   -1268.16112770 Ry
     estimated scf accuracy    <       0.00000057 Ry

     The total energy is the sum of the following terms:
     one-electron contribution =    -488.15302847 Ry
     hartree contribution      =     316.30472183 Ry
     xc contribution           =    -462.74321667 Ry
     ewald contribution        =    -633.56960439 Ry

     convergence has been achieved in   8 iterations

     Forces acting on atoms (cartesian axes, Ry/au):

     atom    1 type  1   force =    -0.00000000   -0.00091727    0.00003119
     atom    2 type  1   force =     0.00000000    0.00091727   -0.00003119
     atom    3 type  1   force =     0.00000000   -0.00091727   -0.00003119
     atom    4 type  1   force =     0.00000000    0.00091727    0.00003119
     atom    5 type  2   force =     0.00000000   -0.00158404   -0.00006274
     atom    6 type  2   force =    -0.00000000    0.00158404    0.00006274
     atom    7 type  2   force =     0.00000000   -0.00158404    0.00006274
     atom    8 type  2   force =    -0.00000000    0.00158404   -0.00006274
     atom    9 type  3   force =    -0.00000000    0.00101609   -0.00205819
     atom   10 type  3   force =     0.00000000   -0.00101609    0.00205819
     atom   11 type  3   force =     0.00000000    0.00101609    0.00205819
     atom   12 type  3   force =     0.00000000   -0.00101609   -0.00205819
     atom   13 type  3   force =     0.00000000   -0.00165279    0.00225658
     atom   14 type  3   force =    -0.00000000    0.00165279   -0.00225658
     atom   15 type  3   force =     0.00000000   -0.00165279   -0.00225658
     atom   16 type  3   force =    -0.00000000    0.00165279    0.00225658
     atom   17 type  3   force =     0.00000000   -0.00198341    0.00056944
     atom   18 type  3   force =    -0.00000000    0.00198341   -0.00056944
     atom   19 type  3   force =     0.00000000   -0.00198341   -0.00056944
     atom   20 type  3   force =    -0.00000000    0.00198341    0.00056944
     The non-local contrib.  to forces
     atom    1 type  1   force =     0.00000000    0.00253516   -0.00365755
     atom    2 type  1   force =     0.00000000   -0.00253516    0.00365755
     atom    3 type  1   force =     0.00000000    0.00253516    0.00365755
     atom    4 type  1   force =     0.00000000   -0.00253516   -0.00365755
     atom    5 type  2   force =     0.00000000   -0.08446737   -0.12906701
     atom    6 type  2   force =     0.00000000    0.08446737    0.12906701
     atom    7 type  2   force =     0.00000000   -0.08446737    0.12906701
     atom    8 type  2   force =     0.00000000    0.08446737   -0.12906701
     atom    9 type  3   force =     0.00000000   -0.05025717   -0.04899176
     atom   10 type  3   force =     0.00000000    0.05025717    0.04899176
     atom   11 type  3   force =    -0.00000000   -0.05025717    0.04899176
     atom   12 type  3   force =     0.00000000    0.05025717   -0.04899176
     atom   13 type  3   force =     0.00000000   -0.03235387    0.05475388
     atom   14 type  3   force =     0.00000000    0.03235387   -0.05475388
     atom   15 type  3   force =     0.00000000   -0.03235387   -0.05475388
     atom   16 type  3   force =     0.00000000    0.03235387    0.05475388
     atom   17 type  3   force =     0.00000000    0.05668986   -0.01765449
     atom   18 type  3   force =     0.00000000   -0.05668986    0.01765449
     atom   19 type  3   force =     0.00000000    0.05668986    0.01765449
     atom   20 type  3   force =     0.00000000   -0.05668986   -0.01765449
     The ionic contribution  to forces
     atom    1 type  1   force =    -0.00000000    0.02273773    0.42856976
     atom    2 type  1   force =    -0.00000000   -0.02273773   -0.42856976
     atom    3 type  1   force =    -0.00000000    0.02273773   -0.42856976
     atom    4 type  1   force =    -0.00000000   -0.02273773    0.42856976
     atom    5 type  2   force =    -0.00000000   -2.44382135   -1.60292983
     atom    6 type  2   force =     0.00000000    2.44382135    1.60292983
     atom    7 type  2   force =    -0.00000000   -2.44382135    1.60292983
     atom    8 type  2   force =     0.00000000    2.44382135   -1.60292983
     atom    9 type  3   force =    -0.00000000    3.00608891    5.13288893
     atom   10 type  3   force =     0.00000000   -3.00608891   -5.13288893
     atom   11 type  3   force =    -0.00000000    3.00608891   -5.13288893
     atom   12 type  3   force =    -0.00000000   -3.00608891    5.13288893
     atom   13 type  3   force =     0.00000000    2.02422849   -3.75281499
     atom   14 type  3   force =    -0.00000000   -2.02422849    3.75281499
     atom   15 type  3   force =     0.00000000    2.02422849    3.75281499
     atom   16 type  3   force =    -0.00000000   -2.02422849   -3.75281499
     atom   17 type  3   force =     0.00000000   -4.20564473    2.10270404
     atom   18 type  3   force =     0.00000000    4.20564473   -2.10270404
     atom   19 type  3   force =     0.00000000   -4.20564473   -2.10270404
     atom   20 type  3   force =     0.00000000    4.20564473    2.10270404
     The local contribution  to forces
     atom    1 type  1   force =    -0.00000000   -0.02625461   -0.42509133
     atom    2 type  1   force =     0.00000000    0.02625461    0.42509133
     atom    3 type  1   force =    -0.00000000   -0.02625461    0.42509133
     atom    4 type  1   force =     0.00000000    0.02625461   -0.42509133
     atom    5 type  2   force =    -0.00000000    2.52745104    1.73203526
     atom    6 type  2   force =    -0.00000000   -2.52745104   -1.73203526
     atom    7 type  2   force =    -0.00000000    2.52745104   -1.73203526
     atom    8 type  2   force =    -0.00000000   -2.52745104    1.73203526
     atom    9 type  3   force =     0.00000000   -2.96020205   -5.09150201
     atom   10 type  3   force =    -0.00000000    2.96020205    5.09150201
     atom   11 type  3   force =     0.00000000   -2.96020205    5.09150201
     atom   12 type  3   force =    -0.00000000    2.96020205   -5.09150201
     atom   13 type  3   force =     0.00000000   -1.99648439    3.70559928
     atom   14 type  3   force =    -0.00000000    1.99648439   -3.70559928
     atom   15 type  3   force =     0.00000000   -1.99648439   -3.70559928
     atom   16 type  3   force =    -0.00000000    1.99648439    3.70559928
     atom   17 type  3   force =    -0.00000000    4.15318300   -2.08657380
     atom   18 type  3   force =    -0.00000000   -4.15318300    2.08657380
     atom   19 type  3   force =     0.00000000    4.15318300    2.08657380
     atom   20 type  3   force =    -0.00000000   -4.15318300   -2.08657380
     The core correction contribution to forces
     atom    1 type  1   force =     0.00000000   -0.00006354    0.00021434
     atom    2 type  1   force =     0.00000000    0.00006354   -0.00021434
     atom    3 type  1   force =     0.00000000   -0.00006354   -0.00021434
     atom    4 type  1   force =    -0.00000000    0.00006354    0.00021434
     atom    5 type  2   force =    -0.00000000    0.00019097    0.00017486
     atom    6 type  2   force =    -0.00000000   -0.00019097   -0.00017486
     atom    7 type  2   force =    -0.00000000    0.00019097   -0.00017486
     atom    8 type  2   force =    -0.00000000   -0.00019097    0.00017486
     atom    9 type  3   force =     0.00000000    0.00538577    0.00545806
     atom   10 type  3   force =    -0.00000000   -0.00538577   -0.00545806
     atom   11 type  3   force =     0.00000000    0.00538577   -0.00545806
     atom   12 type  3   force =    -0.00000000   -0.00538577    0.00545806
     atom   13 type  3   force =    -0.00000000    0.00321171   -0.00549124
     atom   14 type  3   force =    -0.00000000   -0.00321171    0.00549124
     atom   15 type  3   force =     0.00000000    0.00321171    0.00549124
     atom   16 type  3   force =    -0.00000000   -0.00321171   -0.00549124
     atom   17 type  3   force =     0.00000000   -0.00644143    0.00210486
     atom   18 type  3   force =    -0.00000000    0.00644143   -0.00210486
     atom   19 type  3   force =     0.00000000   -0.00644143   -0.00210486
     atom   20 type  3   force =    -0.00000000    0.00644143    0.00210486
     The Hubbard contrib.    to forces
     atom    1 type  1   force =     0.00000000    0.00000000    0.00000000
     atom    2 type  1   force =     0.00000000    0.00000000    0.00000000
     atom    3 type  1   force =     0.00000000    0.00000000    0.00000000
     atom    4 type  1   force =     0.00000000    0.00000000    0.00000000
     atom    5 type  2   force =     0.00000000    0.00000000    0.00000000
     atom    6 type  2   force =     0.00000000    0.00000000    0.00000000
     atom    7 type  2   force =     0.00000000    0.00000000    0.00000000
     atom    8 type  2   force =     0.00000000    0.00000000    0.00000000
     atom    9 type  3   force =     0.00000000    0.00000000    0.00000000
     atom   10 type  3   force =     0.00000000    0.00000000    0.00000000
     atom   11 type  3   force =     0.00000000    0.00000000    0.00000000
     atom   12 type  3   force =     0.00000000    0.00000000    0.00000000
     atom   13 type  3   force =     0.00000000    0.00000000    0.00000000
     atom   14 type  3   force =     0.00000000    0.00000000    0.00000000
     atom   15 type  3   force =     0.00000000    0.00000000    0.00000000
     atom   16 type  3   force =     0.00000000    0.00000000    0.00000000
     atom   17 type  3   force =     0.00000000    0.00000000    0.00000000
     atom   18 type  3   force =     0.00000000    0.00000000    0.00000000
     atom   19 type  3   force =     0.00000000    0.00000000    0.00000000
     atom   20 type  3   force =     0.00000000    0.00000000    0.00000000
     The SCF correction term to forces
     atom    1 type  1   force =     0.00000000    0.00012799   -0.00000404
     atom    2 type  1   force =    -0.00000000   -0.00012799    0.00000404
     atom    3 type  1   force =     0.00000000    0.00012799    0.00000404
     atom    4 type  1   force =    -0.00000000   -0.00012799   -0.00000404
     atom    5 type  2   force =     0.00000000   -0.00093733   -0.00027603
     atom    6 type  2   force =     0.00000000    0.00093733    0.00027603
     atom    7 type  2   force =     0.00000000   -0.00093733    0.00027603
     atom    8 type  2   force =    -0.00000000    0.00093733   -0.00027603
     atom    9 type  3   force =     0.00000000    0.00000064    0.00008858
     atom   10 type  3   force =    -0.00000000   -0.00000064   -0.00008858
     atom   11 type  3   force =    -0.00000000    0.00000064   -0.00008858
     atom   12 type  3   force =    -0.00000000   -0.00000064    0.00008858
     atom   13 type  3   force =    -0.00000000   -0.00025472    0.00020964
     atom   14 type  3   force =    -0.00000000    0.00025472   -0.00020964
     atom   15 type  3   force =     0.00000000   -0.00025472   -0.00020964
     atom   16 type  3   force =    -0.00000000    0.00025472    0.00020964
     atom   17 type  3   force =     0.00000000    0.00022988   -0.00001116
     atom   18 type  3   force =    -0.00000000   -0.00022988    0.00001116
     atom   19 type  3   force =    -0.00000000    0.00022988    0.00001116
     atom   20 type  3   force =     0.00000000   -0.00022988   -0.00001116

     Total force =     0.009101     Total SCF correction =     0.002136
     SCF correction compared to forces is large: reduce conv_thr to get better values

     Computing stress (Cartesian axis) and pressure

          total   stress  (Ry/bohr**3)                   (kbar)     P=      -12.91
  -0.00011660   0.00000000   0.00000000          -17.15        0.00        0.00
   0.00000000  -0.00006629   0.00000000            0.00       -9.75        0.00
   0.00000000   0.00000000  -0.00008045            0.00        0.00      -11.83

     kinetic stress (kbar)   5514.45      0.00      0.00
                                0.00   5535.20      0.00
                                0.00      0.00   5527.18

     local   stress (kbar)  -4553.39      0.00     -0.00
                                0.00  -1927.12      0.00
                               -0.00      0.00  -1031.58

     nonloc. stress (kbar)   1158.53      0.00      0.00
                                0.00   1159.15      0.00
                                0.00      0.00   1161.40

     hartree stress (kbar)   3399.86      0.00      0.00
                                0.00   2187.59      0.00
                                0.00      0.00   1716.49

     exc-cor stress (kbar)   5452.08     -0.00     -0.00
                               -0.00   5452.00      0.00
                               -0.00      0.00   5452.20

     corecor stress (kbar)  -7203.87      0.00      0.00
                                0.00  -7204.42     -0.00
                                0.00     -0.00  -7204.43

     ewald   stress (kbar)  -3784.80      0.00     -0.00
                                0.00  -5212.16      0.00
                               -0.00      0.00  -5633.09

     hubbard stress (kbar)      0.00      0.00      0.00
                                0.00      0.00      0.00
                                0.00      0.00      0.00

     DFT-D   stress (kbar)      0.00      0.00      0.00
                                0.00      0.00      0.00
                                0.00      0.00      0.00

     XDM     stress (kbar)      0.00      0.00      0.00
                                0.00      0.00      0.00
                                0.00      0.00      0.00

     dft-nl  stress (kbar)      0.00      0.00      0.00
                                0.00      0.00      0.00
                                0.00      0.00      0.00

     TS-vdW  stress (kbar)      0.00      0.00      0.00
                                0.00      0.00      0.00
                                0.00      0.00      0.00

     Writing output data file ./CsSnI3.save/

     General routines

     Parallel routines

   This run was terminated on:   9:34: 3  31Jan2021

   JOB DONE.