     Program PWSCF v.6.7MaX starts on 15Jan2021 at 11: 7: 8

     R & G space division:  proc/nbgrp/npool/nimage =      32
     Waiting for input...
     Reading input from standard input

     Current dimensions of program PWSCF are:
     Max number of different atomic species (ntypx) = 10
     Max number of k-points (npk) =  40000
     Max angular momentum in pseudopotentials (lmaxx) =  3
     file Sn.pbe-dn-kjpaw_psl.1.0.0.UPF: wavefunction(s)  5S 5P 4D renormalized
     file I.pbe-n-kjpaw_psl.1.0.0.UPF: wavefunction(s)  5S renormalized
     file Cs.pbe-spn-kjpaw_psl.1.0.0.UPF: wavefunction(s)  5S 6S renormalized

     Subspace diagonalization in iterative solution of the eigenvalue problem:
     a serial algorithm will be used

     Message from routine setup:
     using ibrav=0 with symmetry is DISCOURAGED, use correct ibrav instead

     Title:
     CsSnI3

     bravais-lattice index     =            0
     lattice parameter (alat)  =       9.1317  a.u.
     unit-cell volume          =    6370.5385 (a.u.)^3
     number of atoms/cell      =           20
     number of atomic types    =            3
     number of electrons       =       176.00
     number of Kohn-Sham states=           89
     kinetic-energy cutoff     =      50.0000  Ry
     charge density cutoff     =     200.0000  Ry
     scf convergence threshold =      1.0E-06
     mixing beta               =       0.7000
     number of iterations used =            8  plain     mixing
     Exchange-correlation= SLA  PW   PBX  PBC
                           (   1   4   3   4   0   0   0)

     celldm(1)=   9.131705  celldm(2)=   0.000000  celldm(3)=   0.000000
     celldm(4)=   0.000000  celldm(5)=   0.000000  celldm(6)=   0.000000

     crystal axes: (cart. coord. in units of alat)
               a(1) = (   1.000000   0.000000   0.000000 )
               a(2) = (   0.000000   2.227728   0.000000 )
               a(3) = (   0.000000   0.000000   3.755420 )

     reciprocal axes: (cart. coord. in units 2 pi/alat)
               b(1) = (  1.000000  0.000000  0.000000 )
               b(2) = (  0.000000  0.448888  0.000000 )
               b(3) = (  0.000000  0.000000  0.266282 )

     PseudoPot. # 1 for Sn read from file:
     ../../../pseudo/Sn.pbe-dn-kjpaw_psl.1.0.0.UPF
     MD5 check sum: 67f11dec737d427557dc41ea34975807
     Pseudo is Projector augmented-wave + core cor, Zval = 14.0
     Generated using &quot;atomic&quot; code by A. Dal Corso  v.6.3
     Shape of augmentation charge: PSQ
     Using radial grid of 1243 points,  6 beta functions with:
                l(1) =   0
                l(2) =   0
                l(3) =   1
                l(4) =   1
                l(5) =   2
                l(6) =   2
     Q(r) pseudized with 0 coefficients

     PseudoPot. # 2 for I  read from file:
     ../../../pseudo/I.pbe-n-kjpaw_psl.1.0.0.UPF
     MD5 check sum: cd3d296c3308a581e1559a0c8a554cb5
     Pseudo is Projector augmented-wave + core cor, Zval =  7.0
     Generated using &quot;atomic&quot; code by A. Dal Corso  v.6.3
     Shape of augmentation charge: PSQ
     Using radial grid of 1247 points,  6 beta functions with:
                l(1) =   0
                l(2) =   0
                l(3) =   1
                l(4) =   1
                l(5) =   2
                l(6) =   2
     Q(r) pseudized with 0 coefficients

     PseudoPot. # 3 for Cs read from file:
     ../../../pseudo/Cs.pbe-spn-kjpaw_psl.1.0.0.UPF
     MD5 check sum: b82c75cc2e1f4ff73b6412cffeb9c584
     Pseudo is Projector augmented-wave + core cor, Zval =  9.0
     Generated using &quot;atomic&quot; code by A. Dal Corso  v.6.4.1
     Shape of augmentation charge: PSQ
     Using radial grid of 1251 points,  9 beta functions with:
                l(1) =   0
                l(2) =   0
                l(3) =   0
                l(4) =   1
                l(5) =   1
                l(6) =   2
                l(7) =   2
                l(8) =   3
                l(9) =   3
     Q(r) pseudized with 0 coefficients

     atomic species   valence    mass     pseudopotential
        Sn            14.00   118.70000     Sn( 1.00)
        I              7.00   126.90000     I ( 1.00)
        Cs             9.00   132.90000     Cs( 1.00)

      8 Sym. Ops., with inversion, found ( 6 have fractional translation)

                                    s                        frac. trans.

      isym =  1     identity

 cryst.   s( 1) = (     1          0          0      )
                  (     0          1          0      )
                  (     0          0          1      )

 cart.    s( 1) = (  1.0000000  0.0000000  0.0000000 )
                  (  0.0000000  1.0000000  0.0000000 )
                  (  0.0000000  0.0000000  1.0000000 )

      isym =  2     180 deg rotation - cart. axis [0,0,1]

 cryst.   s( 2) = (    -1          0          0      )    f =(  0.0000000 )
                  (     0         -1          0      )       (  0.5000000 )
                  (     0          0          1      )       (  0.5000000 )

 cart.    s( 2) = ( -1.0000000  0.0000000  0.0000000 )    f =(  0.0000000 )
                  (  0.0000000 -1.0000000  0.0000000 )       (  1.1138638 )
                  (  0.0000000  0.0000000  1.0000000 )       (  1.8777098 )

[...]

      isym =  4     180 deg rotation - cart. axis [1,0,0]

[...]

      isym =  5     inversion

 cryst.   s( 5) = (    -1          0          0      )
                  (     0         -1          0      )
                  (     0          0         -1      )

 cart.    s( 5) = ( -1.0000000  0.0000000  0.0000000 )
                  (  0.0000000 -1.0000000  0.0000000 )
                  (  0.0000000  0.0000000 -1.0000000 )

      isym =  6     inv. 180 deg rotation - cart. axis [0,0,1]

[...]

      isym =  8     inv. 180 deg rotation - cart. axis [1,0,0]

 cryst.   s( 8) = (    -1          0          0      )    f =(  0.5000000 )
                  (     0          1          0      )       (  0.0000000 )
                  (     0          0          1      )       (  0.0000000 )

 cart.    s( 8) = ( -1.0000000  0.0000000  0.0000000 )    f =(  0.5000000 )
                  (  0.0000000  1.0000000  0.0000000 )       (  0.0000000 )
                  (  0.0000000  0.0000000  1.0000000 )       (  0.0000000 )

   Cartesian axes

     site n.     atom                  positions (alat units)
         1           Cs  tau(   1) = (   0.2500000   0.1859640   2.5168147  )
         2           Cs  tau(   2) = (   0.7500000   2.0417636   1.2386050  )
         3           Cs  tau(   3) = (   0.2500000   1.2998278   3.1163149  )
         4           Cs  tau(   4) = (   0.7500000   0.9278998   0.6391048  )
         5           Sn  tau(   5) = (   0.2500000   0.7615710   1.6485466  )
         6           Sn  tau(   6) = (   0.7500000   1.4661567   2.1068731  )
         7           Sn  tau(   7) = (   0.2500000   1.8754348   0.2291632  )
         8           Sn  tau(   8) = (   0.7500000   0.3522928   3.5262565  )
         9           I   tau(   9) = (   0.7500000   0.0581437   0.4202578  )
        10           I   tau(  10) = (   0.2500000   2.1695839   3.3351619  )
        11           I   tau(  11) = (   0.7500000   1.1720075   1.4574521  )
        12           I   tau(  12) = (   0.2500000   1.0557201   2.2979676  )
        13           I   tau(  13) = (   0.7500000   0.6531118   2.9738192  )
        14           I   tau(  14) = (   0.2500000   1.5746158   0.7816005  )
        15           I   tau(  15) = (   0.7500000   1.7669756   2.6593103  )
        16           I   tau(  16) = (   0.2500000   0.4607520   1.0961094  )
        17           I   tau(  17) = (   0.7500000   0.3753632   1.8734812  )
        18           I   tau(  18) = (   0.2500000   1.8523644   1.8819384  )
        19           I   tau(  19) = (   0.7500000   1.4892270   0.0042286  )
        20           I   tau(  20) = (   0.2500000   0.7385006   3.7511911  )

   Crystallographic axes

     site n.     atom                  positions (cryst. coord.)
         1           Cs  tau(   1) = (  0.2500000  0.0834770  0.6701820  )
         2           Cs  tau(   2) = (  0.7500000  0.9165230  0.3298180  )
         3           Cs  tau(   3) = (  0.2500000  0.5834770  0.8298180  )
         4           Cs  tau(   4) = (  0.7500000  0.4165230  0.1701820  )
         5           Sn  tau(   5) = (  0.2500000  0.3418600  0.4389780  )
         6           Sn  tau(   6) = (  0.7500000  0.6581400  0.5610220  )
         7           Sn  tau(   7) = (  0.2500000  0.8418600  0.0610220  )
         8           Sn  tau(   8) = (  0.7500000  0.1581400  0.9389780  )
         9           I   tau(   9) = (  0.7500000  0.0261000  0.1119070  )
        10           I   tau(  10) = (  0.2500000  0.9739000  0.8880930  )
        11           I   tau(  11) = (  0.7500000  0.5261000  0.3880930  )
        12           I   tau(  12) = (  0.2500000  0.4739000  0.6119070  )
        13           I   tau(  13) = (  0.7500000  0.2931740  0.7918740  )
        14           I   tau(  14) = (  0.2500000  0.7068260  0.2081260  )
        15           I   tau(  15) = (  0.7500000  0.7931740  0.7081260  )
        16           I   tau(  16) = (  0.2500000  0.2068260  0.2918740  )
        17           I   tau(  17) = (  0.7500000  0.1684960  0.4988740  )
        18           I   tau(  18) = (  0.2500000  0.8315040  0.5011260  )
        19           I   tau(  19) = (  0.7500000  0.6684960  0.0011260  )
        20           I   tau(  20) = (  0.2500000  0.3315040  0.9988740  )

     number of k points=    64
                       cart. coord. in units 2pi/alat
        k(    1) = (   0.0000000   0.0000000   0.0000000), wk =   0.0058309
        k(    2) = (   0.0000000   0.0000000   0.0380403), wk =   0.0116618
        k(    3) = (   0.0000000   0.0000000   0.0760805), wk =   0.0116618
        k(    4) = (   0.0000000   0.0000000   0.1141208), wk =   0.0116618
        k(    5) = (   0.0000000   0.0641268   0.0000000), wk =   0.0116618
        k(    6) = (   0.0000000   0.0641268   0.0380403), wk =   0.0233236
        k(    7) = (   0.0000000   0.0641268   0.0760805), wk =   0.0233236
        k(    8) = (   0.0000000   0.0641268   0.1141208), wk =   0.0233236
        k(    9) = (   0.0000000   0.1282537   0.0000000), wk =   0.0116618
        k(   10) = (   0.0000000   0.1282537   0.0380403), wk =   0.0233236
        k(   11) = (   0.0000000   0.1282537   0.0760805), wk =   0.0233236
        k(   12) = (   0.0000000   0.1282537   0.1141208), wk =   0.0233236
        k(   13) = (   0.0000000   0.1923805   0.0000000), wk =   0.0116618
        k(   14) = (   0.0000000   0.1923805   0.0380403), wk =   0.0233236
        k(   15) = (   0.0000000   0.1923805   0.0760805), wk =   0.0233236
        k(   16) = (   0.0000000   0.1923805   0.1141208), wk =   0.0233236
        k(   17) = (   0.1428571   0.0000000   0.0000000), wk =   0.0116618
        k(   18) = (   0.1428571   0.0000000   0.0380403), wk =   0.0233236
        k(   19) = (   0.1428571   0.0000000   0.0760805), wk =   0.0233236
        k(   20) = (   0.1428571   0.0000000   0.1141208), wk =   0.0233236
[...]
     1.0000   1.0000   1.0000   1.0000   1.0000   1.0000   1.0000   1.0000
     1.0000   1.0000   1.0000   1.0000   1.0000   1.0000   1.0000   1.0000
     1.0000   1.0000   1.0000   1.0000   1.0000   1.0000   1.0000   1.0000
     1.0000   1.0000   1.0000   1.0000   1.0000   1.0000   1.0000   1.0000
     0.0000

[...]

          k = 0.4286 0.1924 0.1141 ( 38023 PWs)   bands (ev):

   -17.8637 -17.8637 -17.8636 -17.8636 -17.8624 -17.8624 -17.8623 -17.8623
   -17.8512 -17.8512 -17.8511 -17.8511 -17.8436 -17.8436 -17.8433 -17.8433
   -17.8401 -17.8401 -17.8398 -17.8398 -17.7712 -17.7712 -17.7710 -17.7710
    -8.5259  -8.5257  -8.4733  -8.4732  -8.3436  -8.3434  -8.2937  -8.2935
    -8.2833  -8.2814  -8.2753  -8.2739  -4.7533  -4.7524  -4.7390  -4.7381
    -4.5984  -4.5980  -4.5952  -4.5948  -4.5707  -4.5695  -4.5644  -4.5635
    -3.1779  -3.1762  -3.1536  -3.1522   0.1987   0.2010   0.2424   0.2429
     0.4494   0.4502   0.4933   0.4976   0.7491   0.7529   0.9679   0.9767
     1.3363   1.3419   1.4646   1.4710   1.6688   1.6769   1.7266   1.7451
     1.7841   1.7941   1.8034   1.8124   1.9150   1.9227   1.9608   1.9791
     2.0872   2.1010   2.1442   2.1514   2.8211   2.8455   2.9057   2.9145
     6.0924

     occupation numbers
     1.0000   1.0000   1.0000   1.0000   1.0000   1.0000   1.0000   1.0000
     1.0000   1.0000   1.0000   1.0000   1.0000   1.0000   1.0000   1.0000
     1.0000   1.0000   1.0000   1.0000   1.0000   1.0000   1.0000   1.0000
     1.0000   1.0000   1.0000   1.0000   1.0000   1.0000   1.0000   1.0000
     1.0000   1.0000   1.0000   1.0000   1.0000   1.0000   1.0000   1.0000
     1.0000   1.0000   1.0000   1.0000   1.0000   1.0000   1.0000   1.0000
     1.0000   1.0000   1.0000   1.0000   1.0000   1.0000   1.0000   1.0000
     1.0000   1.0000   1.0000   1.0000   1.0000   1.0000   1.0000   1.0000
     1.0000   1.0000   1.0000   1.0000   1.0000   1.0000   1.0000   1.0000
     1.0000   1.0000   1.0000   1.0000   1.0000   1.0000   1.0000   1.0000
     1.0000   1.0000   1.0000   1.0000   1.0000   1.0000   1.0000   1.0000
     0.0000

     highest occupied, lowest unoccupied level (ev):     3.0531    5.1361

!    total energy              =   -7979.62724096 Ry

     total all-electron energy =   -282510.781953 Ry
     estimated scf accuracy    <       0.00000039 Ry

     The total energy is the sum of the following terms:
     one-electron contribution =    -463.62750021 Ry
     hartree contribution      =     316.58098986 Ry
     xc contribution           =    -465.88948420 Ry
     ewald contribution        =    -633.56960439 Ry
     one-center paw contrib.   =   -6733.12164201 Ry
      -> PAW hartree energy AE =      25.63872927 Ry
      -> PAW hartree energy PS =     -25.52917973 Ry
      -> PAW xc energy AE      =    -383.53088815 Ry
      -> PAW xc energy PS      =      20.51556165 Ry
      -> total E_H with PAW    =     316.69053940 Ry
      -> total E_XC with PAW   =    -828.90481070 Ry

     convergence has been achieved in  11 iterations

     Forces acting on atoms (cartesian axes, Ry/au):

     atom    1 type  3   force =     0.00000000   -0.00063336    0.00035352
     atom    2 type  3   force =    -0.00000000    0.00063336   -0.00035352
     atom    3 type  3   force =     0.00000000   -0.00063336   -0.00035352
     atom    4 type  3   force =     0.00000000    0.00063336    0.00035352
     atom    5 type  1   force =     0.00000000   -0.00034637    0.00022642
     atom    6 type  1   force =    -0.00000000    0.00034637   -0.00022642
     atom    7 type  1   force =     0.00000000   -0.00034637   -0.00022642
     atom    8 type  1   force =     0.00000000    0.00034637    0.00022642
     atom    9 type  2   force =     0.00000000    0.00001780   -0.00026349
     atom   10 type  2   force =     0.00000000   -0.00001780    0.00026349
     atom   11 type  2   force =     0.00000000    0.00001780    0.00026349
     atom   12 type  2   force =     0.00000000   -0.00001780   -0.00026349
     atom   13 type  2   force =     0.00000000   -0.00018468   -0.00041455
     atom   14 type  2   force =     0.00000000    0.00018468    0.00041455
     atom   15 type  2   force =    -0.00000000   -0.00018468    0.00041455
     atom   16 type  2   force =     0.00000000    0.00018468   -0.00041455
     atom   17 type  2   force =     0.00000000   -0.00047385    0.00034914
     atom   18 type  2   force =    -0.00000000    0.00047385   -0.00034914
     atom   19 type  2   force =     0.00000000   -0.00047385   -0.00034914
     atom   20 type  2   force =    -0.00000000    0.00047385    0.00034914
     The non-local contrib.  to forces
     atom    1 type  3   force =     0.00000000    0.00219801   -0.00231403
     atom    2 type  3   force =     0.00000000   -0.00219801    0.00231403
     atom    3 type  3   force =     0.00000000    0.00219801    0.00231403
     atom    4 type  3   force =     0.00000000   -0.00219801   -0.00231403
     atom    5 type  1   force =     0.00000000   -0.08697216   -0.13185763
     atom    6 type  1   force =     0.00000000    0.08697216    0.13185763
     atom    7 type  1   force =     0.00000000   -0.08697216    0.13185763
     atom    8 type  1   force =    -0.00000000    0.08697216   -0.13185763
     atom    9 type  2   force =    -0.00000000   -0.04829671   -0.04726887
     atom   10 type  2   force =     0.00000000    0.04829671    0.04726887
     atom   11 type  2   force =    -0.00000000   -0.04829671    0.04726887
     atom   12 type  2   force =     0.00000000    0.04829671   -0.04726887
     atom   13 type  2   force =    -0.00000000   -0.03284376    0.05565210
     atom   14 type  2   force =     0.00000000    0.03284376   -0.05565210
     atom   15 type  2   force =     0.00000000   -0.03284376   -0.05565210
     atom   16 type  2   force =     0.00000000    0.03284376    0.05565210
     atom   17 type  2   force =     0.00000000    0.05540788   -0.01652434
     atom   18 type  2   force =    -0.00000000   -0.05540788    0.01652434
     atom   19 type  2   force =     0.00000000    0.05540788    0.01652434
     atom   20 type  2   force =     0.00000000   -0.05540788   -0.01652434
     The ionic contribution  to forces
     atom    1 type  3   force =    -0.00000000    0.02273773    0.42856976
     atom    2 type  3   force =    -0.00000000   -0.02273773   -0.42856976
     atom    3 type  3   force =    -0.00000000    0.02273773   -0.42856976
     atom    4 type  3   force =     0.00000000   -0.02273773    0.42856976
     atom    5 type  1   force =     0.00000000   -2.44382135   -1.60292983
     atom    6 type  1   force =     0.00000000    2.44382135    1.60292983
     atom    7 type  1   force =    -0.00000000   -2.44382135    1.60292983
     atom    8 type  1   force =     0.00000000    2.44382135   -1.60292983
     atom    9 type  2   force =     0.00000000    3.00608891    5.13288893
     atom   10 type  2   force =     0.00000000   -3.00608891   -5.13288893
     atom   11 type  2   force =    -0.00000000    3.00608891   -5.13288893
     atom   12 type  2   force =    -0.00000000   -3.00608891    5.13288893
     atom   13 type  2   force =    -0.00000000    2.02422849   -3.75281499
     atom   14 type  2   force =     0.00000000   -2.02422849    3.75281499
     atom   15 type  2   force =    -0.00000000    2.02422849    3.75281499
     atom   16 type  2   force =     0.00000000   -2.02422849   -3.75281499
     atom   17 type  2   force =     0.00000000   -4.20564473    2.10270404
     atom   18 type  2   force =    -0.00000000    4.20564473   -2.10270404
     atom   19 type  2   force =     0.00000000   -4.20564473   -2.10270404
     atom   20 type  2   force =    -0.00000000    4.20564473    2.10270404
     The local contribution  to forces
     atom    1 type  3   force =     0.00000000   -0.02550885   -0.42636854
     atom    2 type  3   force =    -0.00000000    0.02550885    0.42636854
     atom    3 type  3   force =     0.00000000   -0.02550885    0.42636854
     atom    4 type  3   force =    -0.00000000    0.02550885   -0.42636854
     atom    5 type  1   force =    -0.00000000    2.52904433    1.73506331
     atom    6 type  1   force =    -0.00000000   -2.52904433   -1.73506331
     atom    7 type  1   force =    -0.00000000    2.52904433   -1.73506331
     atom    8 type  1   force =    -0.00000000   -2.52904433    1.73506331
     atom    9 type  2   force =     0.00000000   -2.96413964   -5.09237617
     atom   10 type  2   force =    -0.00000000    2.96413964    5.09237617
     atom   11 type  2   force =     0.00000000   -2.96413964    5.09237617
     atom   12 type  2   force =    -0.00000000    2.96413964   -5.09237617
     atom   13 type  2   force =     0.00000000   -1.99582408    3.70430050
     atom   14 type  2   force =    -0.00000000    1.99582408   -3.70430050
     atom   15 type  2   force =     0.00000000   -1.99582408   -3.70430050
     atom   16 type  2   force =    -0.00000000    1.99582408    3.70430050
     atom   17 type  2   force =    -0.00000000    4.15705219   -2.08830236
     atom   18 type  2   force =    -0.00000000   -4.15705219    2.08830236
     atom   19 type  2   force =     0.00000000    4.15705219    2.08830236
     atom   20 type  2   force =     0.00000000   -4.15705219   -2.08830236
     The core correction contribution to forces
     atom    1 type  3   force =    -0.00000000   -0.00017867    0.00018377
     atom    2 type  3   force =     0.00000000    0.00017867   -0.00018377
     atom    3 type  3   force =    -0.00000000   -0.00017867   -0.00018377
     atom    4 type  3   force =     0.00000000    0.00017867    0.00018377
     atom    5 type  1   force =     0.00000000    0.00017563    0.00007162
     atom    6 type  1   force =    -0.00000000   -0.00017563   -0.00007162
     atom    7 type  1   force =     0.00000000    0.00017563   -0.00007162
     atom    8 type  1   force =    -0.00000000   -0.00017563    0.00007162
     atom    9 type  2   force =     0.00000000    0.00642424    0.00651155
     atom   10 type  2   force =    -0.00000000   -0.00642424   -0.00651155
     atom   11 type  2   force =     0.00000000    0.00642424   -0.00651155
     atom   12 type  2   force =     0.00000000   -0.00642424    0.00651155
     atom   13 type  2   force =    -0.00000000    0.00433675   -0.00742262
     atom   14 type  2   force =    -0.00000000   -0.00433675    0.00742262
     atom   15 type  2   force =     0.00000000    0.00433675    0.00742262
     atom   16 type  2   force =    -0.00000000   -0.00433675   -0.00742262
     atom   17 type  2   force =    -0.00000000   -0.00760475    0.00247450
     atom   18 type  2   force =     0.00000000    0.00760475   -0.00247450
     atom   19 type  2   force =    -0.00000000   -0.00760475   -0.00247450
     atom   20 type  2   force =     0.00000000    0.00760475    0.00247450
     The Hubbard contrib.    to forces
     atom    1 type  3   force =     0.00000000    0.00000000    0.00000000
     atom    2 type  3   force =     0.00000000    0.00000000    0.00000000
     atom    3 type  3   force =     0.00000000    0.00000000    0.00000000
     atom    4 type  3   force =     0.00000000    0.00000000    0.00000000
     atom    5 type  1   force =     0.00000000    0.00000000    0.00000000
     atom    6 type  1   force =     0.00000000    0.00000000    0.00000000
     atom    7 type  1   force =     0.00000000    0.00000000    0.00000000
     atom    8 type  1   force =     0.00000000    0.00000000    0.00000000
     atom    9 type  2   force =     0.00000000    0.00000000    0.00000000
     atom   10 type  2   force =     0.00000000    0.00000000    0.00000000
     atom   11 type  2   force =     0.00000000    0.00000000    0.00000000
     atom   12 type  2   force =     0.00000000    0.00000000    0.00000000
     atom   13 type  2   force =     0.00000000    0.00000000    0.00000000
     atom   14 type  2   force =     0.00000000    0.00000000    0.00000000
     atom   15 type  2   force =     0.00000000    0.00000000    0.00000000
     atom   16 type  2   force =     0.00000000    0.00000000    0.00000000
     atom   17 type  2   force =     0.00000000    0.00000000    0.00000000
     atom   18 type  2   force =     0.00000000    0.00000000    0.00000000
     atom   19 type  2   force =     0.00000000    0.00000000    0.00000000
     atom   20 type  2   force =     0.00000000    0.00000000    0.00000000
     The SCF correction term to forces
     atom    1 type  3   force =     0.00000000    0.00011841    0.00028256
     atom    2 type  3   force =    -0.00000000   -0.00011841   -0.00028256
     atom    3 type  3   force =     0.00000000    0.00011841   -0.00028256
     atom    4 type  3   force =    -0.00000000   -0.00011841    0.00028256
     atom    5 type  1   force =    -0.00000000    0.00122718   -0.00012104
     atom    6 type  1   force =    -0.00000000   -0.00122718    0.00012104
     atom    7 type  1   force =    -0.00000000    0.00122718    0.00012104
     atom    8 type  1   force =     0.00000000   -0.00122718   -0.00012104
     atom    9 type  2   force =     0.00000000   -0.00005901   -0.00001893
     atom   10 type  2   force =    -0.00000000    0.00005901    0.00001893
     atom   11 type  2   force =     0.00000000   -0.00005901    0.00001893
     atom   12 type  2   force =    -0.00000000    0.00005901   -0.00001893
     atom   13 type  2   force =     0.00000000   -0.00008208   -0.00012954
     atom   14 type  2   force =    -0.00000000    0.00008208    0.00012954
     atom   15 type  2   force =     0.00000000   -0.00008208    0.00012954
     atom   16 type  2   force =    -0.00000000    0.00008208   -0.00012954
     atom   17 type  2   force =     0.00000000    0.00031556   -0.00000270
     atom   18 type  2   force =     0.00000000   -0.00031556    0.00000270
     atom   19 type  2   force =    -0.00000000    0.00031556    0.00000270
     atom   20 type  2   force =     0.00000000   -0.00031556   -0.00000270

     Total force =     0.002297     Total SCF correction =     0.002639
     SCF correction compared to forces is large: reduce conv_thr to get better values

     Computing stress (Cartesian axis) and pressure

          total   stress  (Ry/bohr**3)                   (kbar)     P=       -0.29
  -0.00000203   0.00000000   0.00000000           -0.30        0.00        0.00
   0.00000000  -0.00000161   0.00000000            0.00       -0.24        0.00
   0.00000000   0.00000000  -0.00000235            0.00        0.00       -0.35

     kinetic stress (kbar)   5524.18      0.00      0.00
                                0.00   5535.37      0.00
                                0.00      0.00   5529.32

     local   stress (kbar)  -4517.01      0.00     -0.00
                                0.00  -1884.80      0.00
                               -0.00      0.00   -991.34

     nonloc. stress (kbar)   1139.88      0.00      0.00
                                0.00   1138.29      0.00
                                0.00      0.00   1140.93

     hartree stress (kbar)   3402.51      0.00      0.00
                                0.00   2188.75     -0.00
                                0.00     -0.00   1719.06

     exc-cor stress (kbar)   5446.86     -0.00     -0.00
                               -0.00   5446.51      0.00
                               -0.00      0.00   5446.94

     corecor stress (kbar)  -7211.92      0.00     -0.00
                                0.00  -7212.20     -0.00
                               -0.00     -0.00  -7212.18

     ewald   stress (kbar)  -3784.80      0.00     -0.00
                                0.00  -5212.16      0.00
                               -0.00      0.00  -5633.09

     hubbard stress (kbar)      0.00      0.00      0.00
                                0.00      0.00      0.00
                                0.00      0.00      0.00

     DFT-D   stress (kbar)      0.00      0.00      0.00
                                0.00      0.00      0.00
                                0.00      0.00      0.00

     XDM     stress (kbar)      0.00      0.00      0.00
                                0.00      0.00      0.00
                                0.00      0.00      0.00

     dft-nl  stress (kbar)      0.00      0.00      0.00
                                0.00      0.00      0.00
                                0.00      0.00      0.00

     TS-vdW  stress (kbar)      0.00      0.00      0.00
                                0.00      0.00      0.00
                                0.00      0.00      0.00

     Writing output data file ./out/CsSnI3.save/

     General routines

     Parallel routines

     PAW routines

   This run was terminated on:  12:24:51  15Jan2021

   JOB DONE.