     Program PWSCF v.6.3 starts on 15Feb2021 at 11:28:58

     R & G space division:  proc/nbgrp/npool/nimage =      32
     Waiting for input...
     Reading input from standard input

     Current dimensions of program PWSCF are:
     Max number of different atomic species (ntypx) = 10
     Max number of k-points (npk) =  40000
     Max angular momentum in pseudopotentials (lmaxx) =  3
               file Sn.rel-pbe-dn-rrkjus_psl.1.0.0.UPF: wavefunction(s)  5S 4D 4D renormalized
               file Cs.rel-pbe-spn-rrkjus_psl.1.0.0.UPF: wavefunction(s)  5S 6S renormalized

     Title:
     perovskite

     bravais-lattice index     =            0
     lattice parameter (alat)  =      16.5857  a.u.
     unit-cell volume          =    6523.1011 (a.u.)^3
     number of atoms/cell      =           20
     number of atomic types    =            3
     number of electrons       =       176.00
     number of Kohn-Sham states=          176
     kinetic-energy cutoff     =      80.0000  Ry
     charge density cutoff     =     320.0000  Ry
     convergence threshold     =      1.0E-07
     mixing beta               =       0.6000
     number of iterations used =            8  plain     mixing
     Exchange-correlation      = PBE ( 1  4  3  4 0 0)
     nstep                     =           50

     Non magnetic calculation with spin-orbit

     celldm(1)=  16.585700  celldm(2)=   0.000000  celldm(3)=   0.000000
     celldm(4)=   0.000000  celldm(5)=   0.000000  celldm(6)=   0.000000

     crystal axes: (cart. coord. in units of alat)
               a(1) = (   1.000000   0.000000   0.000000 )
               a(2) = (   0.000000   1.000000   0.000000 )
               a(3) = (   0.000000   0.000000   1.429726 )

     reciprocal axes: (cart. coord. in units 2 pi/alat)
               b(1) = (  1.000000  0.000000  0.000000 )
               b(2) = (  0.000000  1.000000  0.000000 )
               b(3) = (  0.000000  0.000000  0.699435 )

     PseudoPot. # 1 for Sn read from file:
     ./Sn.rel-pbe-dn-rrkjus_psl.1.0.0.UPF
     MD5 check sum: e9415cc9ba1036dfb73502962f03961a
     Pseudo is Ultrasoft + core correction, Zval = 14.0
     Generated using "atomic" code by A. Dal Corso v.6.3
     Using radial grid of 1243 points, 10 beta functions with:
                l(1) =   0
                l(2) =   0
                l(3) =   1
                l(4) =   1
                l(5) =   1
                l(6) =   1
                l(7) =   2
                l(8) =   2
                l(9) =   2
               l(10) =   2
     Q(r) pseudized with 0 coefficients

     PseudoPot. # 2 for I  read from file:
     ./I.rel-pbe-n-rrkjus_psl.0.2.2.UPF
     MD5 check sum: b9024a078df971004264c9bcc9ff756e
     Pseudo is Ultrasoft + core correction, Zval =  7.0
     Generated using "atomic" code by A. Dal Corso v.5.0.2 svn rev. 9415
     Using radial grid of 1247 points,  6 beta functions with:
                l(1) =   0
                l(2) =   0
                l(3) =   1
                l(4) =   1
                l(5) =   1
                l(6) =   1
     Q(r) pseudized with 0 coefficients

     PseudoPot. # 3 for Cs read from file:
     ./Cs.rel-pbe-spn-rrkjus_psl.1.0.0.UPF
     MD5 check sum: 92f45d5fced885c1284380ec35df8368
     Pseudo is Ultrasoft + core correction, Zval =  9.0
     Generated using "atomic" code by A. Dal Corso v.6.4.1
     Using radial grid of 1251 points, 15 beta functions with:
                l(1) =   0
                l(2) =   0
                l(3) =   0
                l(4) =   1
                l(5) =   1
                l(6) =   1
                l(7) =   1
                l(8) =   2
                l(9) =   2
               l(10) =   2
               l(11) =   2
               l(12) =   3
               l(13) =   3
               l(14) =   3
               l(15) =   3
     Q(r) pseudized with 0 coefficients

     atomic species   valence    mass     pseudopotential
        Sn            14.00   118.70000     Sn( 1.00)
        I              7.00   126.90000     I ( 1.00)
        Cs             9.00   132.90000     Cs( 1.00)

      4 Sym. Ops. (no inversion) found
          (note:  4 additional sym.ops. were found but ignored
           their fractional translations are incommensurate with FFT grid)

                                    s                        frac. trans.

      isym =  1     identity

 cryst.   s( 1) = (     1          0          0      )
                  (     0          1          0      )
                  (     0          0          1      )

 cart.    s( 1) = (  1.0000000  0.0000000  0.0000000 )
                  (  0.0000000  1.0000000  0.0000000 )
                  (  0.0000000  0.0000000  1.0000000 )

      isym =  2     180 deg rotation - cart. axis [0,0,1]

[...]

      isym =  3     inv.  90 deg rotation - cart. axis [0,0,-1]

[...]

   Cartesian axes

     site n.     atom                  positions (alat units)
         1           Cs  tau(   1) = (   0.0000000   0.5000000   1.4216934  )
         2           Cs  tau(   2) = (   0.0000000   0.5000000   0.7228950  )
         3           Cs  tau(   3) = (   0.5000000   0.0000000   0.7068306  )
         4           Cs  tau(   4) = (   0.5000000   0.0000000   0.0080322  )
         5           Sn  tau(   5) = (   0.5000000   0.2443870   0.3574314  )
         6           Sn  tau(   6) = (   0.5000000   0.7556130   0.3574314  )
         7           Sn  tau(   7) = (   0.2443870   0.5000000   1.0722942  )
         8           Sn  tau(   8) = (   0.7556130   0.5000000   1.0722942  )
         9           I   tau(   9) = (   0.9601140   0.2338400   1.1660728  )
        10           I   tau(  10) = (   0.9601140   0.7661600   0.9785156  )
        11           I   tau(  11) = (   0.0398860   0.2338400   0.9785156  )
        12           I   tau(  12) = (   0.0398860   0.7661600   1.1660728  )
        13           I   tau(  13) = (   0.2338400   0.9601140   0.4512100  )
        14           I   tau(  14) = (   0.2338400   0.0398860   0.2636528  )
        15           I   tau(  15) = (   0.7661600   0.9601140   0.2636528  )
        16           I   tau(  16) = (   0.7661600   0.0398860   0.4512100  )
        17           I   tau(  17) = (   0.0000000   0.8899130   0.3574314  )
        18           I   tau(  18) = (   0.0000000   0.1100870   0.3574314  )
        19           I   tau(  19) = (   0.8899130   0.0000000   1.0722942  )
        20           I   tau(  20) = (   0.1100870   0.0000000   1.0722942  )

   Crystallographic axes

     site n.     atom                  positions (cryst. coord.)
         1           Cs  tau(   1) = (  0.0000000  0.5000000  0.9943820  )
         2           Cs  tau(   2) = (  0.0000000  0.5000000  0.5056180  )
         3           Cs  tau(   3) = (  0.5000000  0.0000000  0.4943820  )
         4           Cs  tau(   4) = (  0.5000000  0.0000000  0.0056180  )
         5           Sn  tau(   5) = (  0.5000000  0.2443870  0.2500000  )
         6           Sn  tau(   6) = (  0.5000000  0.7556130  0.2500000  )
         7           Sn  tau(   7) = (  0.2443870  0.5000000  0.7500000  )
         8           Sn  tau(   8) = (  0.7556130  0.5000000  0.7500000  )
         9           I   tau(   9) = (  0.9601140  0.2338400  0.8155920  )
        10           I   tau(  10) = (  0.9601140  0.7661600  0.6844080  )
        11           I   tau(  11) = (  0.0398860  0.2338400  0.6844080  )
        12           I   tau(  12) = (  0.0398860  0.7661600  0.8155920  )
        13           I   tau(  13) = (  0.2338400  0.9601140  0.3155920  )
        14           I   tau(  14) = (  0.2338400  0.0398860  0.1844080  )
        15           I   tau(  15) = (  0.7661600  0.9601140  0.1844080  )
        16           I   tau(  16) = (  0.7661600  0.0398860  0.3155920  )
        17           I   tau(  17) = (  0.0000000  0.8899130  0.2500000  )
        18           I   tau(  18) = (  0.0000000  0.1100870  0.2500000  )
        19           I   tau(  19) = (  0.8899130  0.0000000  0.7500000  )
        20           I   tau(  20) = (  0.1100870  0.0000000  0.7500000  )

     number of k points=     6
                       cart. coord. in units 2pi/alat
        k(    1) = (   0.0000000   0.0000000   0.0000000), wk =   0.0555556
        k(    2) = (   0.0000000   0.0000000  -0.3497175), wk =   0.0555556
        k(    3) = (   0.0000000   0.3333333   0.0000000), wk =   0.2222222
        k(    4) = (   0.0000000   0.3333333  -0.3497175), wk =   0.2222222
        k(    5) = (   0.3333333   0.3333333   0.0000000), wk =   0.2222222
        k(    6) = (   0.3333333   0.3333333  -0.3497175), wk =   0.2222222

                       cryst. coord.
        k(    1) = (   0.0000000   0.0000000   0.0000000), wk =   0.0555556
        k(    2) = (   0.0000000   0.0000000  -0.5000000), wk =   0.0555556
        k(    3) = (   0.0000000   0.3333333   0.0000000), wk =   0.2222222
        k(    4) = (   0.0000000   0.3333333  -0.5000000), wk =   0.2222222
        k(    5) = (   0.3333333   0.3333333   0.0000000), wk =   0.2222222
        k(    6) = (   0.3333333   0.3333333  -0.5000000), wk =   0.2222222

     Initial potential from superposition of free atoms

     starting charge  175.83607, renormalised to  176.00000
     Starting wfcs are  208 randomized atomic wfcs

     Self-consistent Calculation

     iteration #  1     ecut=    80.00 Ry     beta= 0.60
     Davidson diagonalization with overlap
     ethr =  1.00E-02,  avg # of iterations =  3.3

     total energy              =   -1559.10712761 Ry
     Harris-Foulkes estimate   =   -1563.07505995 Ry
     estimated scf accuracy    <       5.20502351 Ry

[...]

     iteration #  3     ecut=    80.00 Ry     beta= 0.60
     Davidson diagonalization with overlap
     c_bands:  4 eigenvalues not converged
     ethr =  2.96E-03,  avg # of iterations = 23.3

[...]

     End of self-consistent calculation

          k = 0.0000 0.0000 0.0000 ( 78943 PWs)   bands (ev):

   -22.2071 -22.2071 -22.2067 -22.2067 -19.8489 -19.8489 -19.8489 -19.8489
   -17.4866 -17.4866 -17.4865 -17.4865 -17.4831 -17.4831 -17.4822 -17.4822
   -16.7198 -16.7198 -16.7198 -16.7198 -16.7168 -16.7168 -16.7168 -16.7168
   -16.5784 -16.5784 -16.5784 -16.5784 -16.5746 -16.5746 -16.5746 -16.5746
   -15.7082 -15.7082 -15.7082 -15.7082 -15.7040 -15.7040 -15.7040 -15.7040
   -15.6143 -15.6143 -15.6143 -15.6143 -15.6006 -15.6006 -15.6006 -15.6006
   -15.5332 -15.5332 -15.5332 -15.5332 -15.5127 -15.5127 -15.5127 -15.5127
   -15.2823 -15.2823 -15.2816 -15.2816 -11.5777 -11.5777 -11.5776 -11.5776
   -10.4138 -10.4138 -10.3991 -10.3991  -8.7459  -8.7459  -8.7454  -8.7454
    -8.2726  -8.2726  -8.2717  -8.2717  -6.7342  -6.7342  -6.7294  -6.7294
    -5.7208  -5.7208  -5.7161  -5.7161  -5.6858  -5.6858  -5.6858  -5.6858
    -4.9436  -4.9436  -4.9255  -4.9255  -4.7717  -4.7717  -4.7576  -4.7576
    -4.3538  -4.3538  -4.3505  -4.3505  -4.2263  -4.2263  -4.1194  -4.1194
    -3.9659  -3.9659  -3.9317  -3.9317  -3.6838  -3.6838  -3.6779  -3.6779
    -3.3270  -3.3270  -3.3039  -3.3039  -3.1431  -3.1431  -3.1147  -3.1147
    -2.9536  -2.9536  -2.9452  -2.9452  -2.6830  -2.6830  -2.6743  -2.6743
[...]
        k(    2) = (   0.0000000   0.0000000  -0.3497175), wk =   0.0555556
        k(    3) = (   0.0000000   0.3333333   0.0000000), wk =   0.2222222
        k(    4) = (   0.0000000   0.3333333  -0.3497175), wk =   0.2222222
        k(    5) = (   0.3333333   0.3333333   0.0000000), wk =   0.2222222
        k(    6) = (   0.3333333   0.3333333  -0.3497175), wk =   0.2222222

                       cryst. coord.
        k(    1) = (   0.0000000   0.0000000   0.0000000), wk =   0.0555556
        k(    2) = (   0.0000000   0.0000000  -0.5000000), wk =   0.0555556
        k(    3) = (   0.0000000   0.3333333   0.0000000), wk =   0.2222222
        k(    4) = (   0.0000000   0.3333333  -0.5000000), wk =   0.2222222
        k(    5) = (   0.3333333   0.3333333   0.0000000), wk =   0.2222222
        k(    6) = (   0.3333333   0.3333333  -0.5000000), wk =   0.2222222

     Initial potential from superposition of free atoms

     starting charge  175.83607, renormalised to  176.00000
     Starting wfcs are  208 randomized atomic wfcs

     Self-consistent Calculation

[...]

     total energy              =   -1575.35453595 Ry
     Harris-Foulkes estimate   =   -1575.35453595 Ry
     estimated scf accuracy    <          1.8E-09 Ry

     iteration # 30     ecut=    80.00 Ry     beta= 0.60
     Davidson diagonalization with overlap
     ethr =  1.03E-12,  avg # of iterations =  4.2

     End of self-consistent calculation

[...]

          k = 0.3333 0.3333-0.3497 ( 78768 PWs)   bands (ev):

   -18.9268 -18.9268 -18.9268 -18.9268 -18.9118 -18.9118 -18.9118 -18.9118
   -18.9077 -18.9077 -18.9077 -18.9077 -18.9076 -18.9076 -18.9076 -18.9076
   -17.9043 -17.9043 -17.9043 -17.9043 -17.8953 -17.8953 -17.8953 -17.8953
   -17.8734 -17.8734 -17.8734 -17.8734 -17.8657 -17.8657 -17.8657 -17.8657
   -17.8563 -17.8563 -17.8563 -17.8563 -17.8499 -17.8499 -17.8499 -17.8499
   -17.2775 -17.2775 -17.2775 -17.2775 -17.0964 -17.0964 -17.0964 -17.0964
    -9.5280  -9.5280  -9.5262  -9.5262  -9.0807  -9.0807  -9.0789  -9.0789
    -8.8741  -8.8741  -8.8737  -8.8737  -8.5500  -8.5500  -8.5495  -8.5495
    -7.7943  -7.7942  -7.7917  -7.7916  -7.4790  -7.4790  -7.4760  -7.4760
    -5.4280  -5.4280  -5.4015  -5.4015  -5.1456  -5.1456  -5.1223  -5.1223
    -4.1361  -4.1361  -4.1160  -4.1160  -4.1047  -4.1047  -4.0804  -4.0804
    -3.7580  -3.7579  -3.7414  -3.7414  -3.7045  -3.7045  -3.7026  -3.7026
    -3.4275  -3.4275  -3.3658  -3.3658  -3.1127  -3.1127  -3.1112  -3.1112
    -0.4380  -0.4380  -0.3668  -0.3668  -0.1247  -0.1247  -0.0477  -0.0476
     0.0724   0.0724   0.1206   0.1207   0.2778   0.2778   0.3434   0.3434
     0.4678   0.4679   0.5190   0.5191   0.6561   0.6562   0.6888   0.6888
     0.8839   0.8839   0.9178   0.9178   1.2342   1.2342   1.2716   1.2716
     1.3085   1.3085   1.3665   1.3665   1.4488   1.4488   1.4918   1.4918
     2.0412   2.0413   2.0829   2.0829   2.1541   2.1541   2.2816   2.2816
     2.6392   2.6392   2.7770   2.7770   2.9384   2.9384   3.0271   3.0271
     3.1457   3.1457   3.1973   3.1974   3.2769   3.2769   3.3009   3.3009
     3.6317   3.6317   3.7377   3.7378   4.0007   4.0008   4.0941   4.0942

     occupation numbers
     1.0000   1.0000   1.0000   1.0000   1.0000   1.0000   1.0000   1.0000
     1.0000   1.0000   1.0000   1.0000   1.0000   1.0000   1.0000   1.0000
     1.0000   1.0000   1.0000   1.0000   1.0000   1.0000   1.0000   1.0000
     1.0000   1.0000   1.0000   1.0000   1.0000   1.0000   1.0000   1.0000
     1.0000   1.0000   1.0000   1.0000   1.0000   1.0000   1.0000   1.0000
     1.0000   1.0000   1.0000   1.0000   1.0000   1.0000   1.0000   1.0000
     1.0000   1.0000   1.0000   1.0000   1.0000   1.0000   1.0000   1.0000
     1.0000   1.0000   1.0000   1.0000   1.0000   1.0000   1.0000   1.0000
     1.0000   1.0000   1.0000   1.0000   1.0000   1.0000   1.0000   1.0000
     1.0000   1.0000   1.0000   1.0000   1.0000   1.0000   1.0000   1.0000
     1.0000   1.0000   1.0000   1.0000   1.0000   1.0000   1.0000   1.0000
     1.0000   1.0000   1.0000   1.0000   1.0000   1.0000   1.0000   1.0000
     1.0000   1.0000   1.0000   1.0000   1.0000   1.0000   1.0000   1.0000
     1.0000   1.0000   1.0000   1.0000   1.0000   1.0000   1.0000   1.0000
     1.0000   1.0000   1.0000   1.0000   1.0000   1.0000   1.0000   1.0000
     1.0000   1.0000   1.0000   1.0000   1.0000   1.0000   1.0000   1.0000
     1.0000   1.0000   1.0000   1.0000   1.0000   1.0000   1.0000   1.0000
     1.0000   1.0000   1.0000   1.0000   1.0000   1.0000   1.0000   1.0000
     1.0000   1.0000   1.0000   1.0000   1.0000   1.0000   1.0000   1.0000
     1.0000   1.0000   1.0000   1.0000   1.0000   1.0000   1.0000   1.0000
     1.0000   1.0000   1.0000   1.0000   1.0000   1.0000   1.0000   1.0000
     1.0000   1.0000   1.0000   1.0000   1.0000   1.0000   1.0000   1.0000

     highest occupied level (ev):     4.0942

!    total energy              =   -1575.35453595 Ry
     Harris-Foulkes estimate   =   -1575.35453595 Ry
     estimated scf accuracy    <          5.9E-10 Ry

     The total energy is the sum of the following terms:

     one-electron contribution =    -607.12515564 Ry
     hartree contribution      =     379.50304538 Ry
     xc contribution           =    -778.19449589 Ry
     ewald contribution        =    -569.53792980 Ry

     convergence has been achieved in  30 iterations

     Forces acting on atoms (cartesian axes, Ry/au):

     atom    1 type  3   force =     0.00000000    0.00000000   -0.00008625
     atom    2 type  3   force =     0.00000000    0.00000000    0.00007973
     atom    3 type  3   force =     0.00000000    0.00000000   -0.00007973
     atom    4 type  3   force =     0.00000000    0.00000000    0.00008625
     atom    5 type  1   force =    -0.00002206    0.00001487    0.00002397
     atom    6 type  1   force =     0.00002206   -0.00001487    0.00002397
     atom    7 type  1   force =     0.00001487    0.00002206   -0.00002397
     atom    8 type  1   force =    -0.00001487   -0.00002206   -0.00002397
     atom    9 type  2   force =     0.00003714    0.00000904    0.00008550
     atom   10 type  2   force =    -0.00000389   -0.00000602   -0.00006884
     atom   11 type  2   force =     0.00000389    0.00000602   -0.00006884
     atom   12 type  2   force =    -0.00003714   -0.00000904    0.00008550
     atom   13 type  2   force =     0.00000602   -0.00000389    0.00006884
     atom   14 type  2   force =     0.00000904   -0.00003714   -0.00008550
     atom   15 type  2   force =    -0.00000904    0.00003714   -0.00008550
     atom   16 type  2   force =    -0.00000602    0.00000389    0.00006884
     atom   17 type  2   force =    -0.00004947    0.00006133   -0.00000049
     atom   18 type  2   force =     0.00004947   -0.00006133   -0.00000049
     atom   19 type  2   force =     0.00006133    0.00004947    0.00000049
     atom   20 type  2   force =    -0.00006133   -0.00004947    0.00000049
     The non-local contrib.  to forces
     atom    1 type  3   force =     0.00000000    0.00000000    0.00128131
     atom    2 type  3   force =     0.00000000    0.00000000   -0.00130620
     atom    3 type  3   force =     0.00000000    0.00000000    0.00130620
     atom    4 type  3   force =     0.00000000    0.00000000   -0.00128131
     atom    5 type  1   force =    -0.00044908   -0.43831723    0.00001157
     atom    6 type  1   force =     0.00044908    0.43831723    0.00001157
     atom    7 type  1   force =    -0.43831723    0.00044908   -0.00001157
     atom    8 type  1   force =     0.43831723   -0.00044908   -0.00001157
     atom    9 type  2   force =    -0.00018253    0.11123265   -0.02141952
     atom   10 type  2   force =     0.00016228   -0.11122778    0.02142812
     atom   11 type  2   force =    -0.00016228    0.11122778    0.02142812
     atom   12 type  2   force =     0.00018253   -0.11123265   -0.02141952
     atom   13 type  2   force =     0.11122778    0.00016228   -0.02142812
     atom   14 type  2   force =     0.11123265    0.00018253    0.02141952
     atom   15 type  2   force =    -0.11123265   -0.00018253    0.02141952
     atom   16 type  2   force =    -0.11122778   -0.00016228   -0.02142812
     atom   17 type  2   force =    -0.00004790   -0.08116141    0.00000022
     atom   18 type  2   force =     0.00004790    0.08116141    0.00000022
     atom   19 type  2   force =    -0.08116141    0.00004790   -0.00000022
     atom   20 type  2   force =     0.08116141   -0.00004790   -0.00000022
     The ionic contribution  to forces
     atom    1 type  3   force =    -0.00000000   -0.00000000    0.31032900
     atom    2 type  3   force =     0.00000000   -0.00000000   -0.31092771
     atom    3 type  3   force =    -0.00000000    0.00000000    0.31092771
     atom    4 type  3   force =    -0.00000000   -0.00000000   -0.31032900
     atom    5 type  1   force =     0.00302517   17.17847572   -0.00035840
     atom    6 type  1   force =    -0.00302517  -17.17847572   -0.00035840
     atom    7 type  1   force =    17.17847572   -0.00302517    0.00035840
     atom    8 type  1   force =   -17.17847572    0.00302517    0.00035840
     atom    9 type  2   force =     0.00615167   -3.74464904    4.87618054
     atom   10 type  2   force =    -0.00736403    3.74445949   -4.87571635
     atom   11 type  2   force =     0.00736403   -3.74445949   -4.87571635
     atom   12 type  2   force =    -0.00615167    3.74464904    4.87618054
     atom   13 type  2   force =    -3.74445949   -0.00736403    4.87571635
     atom   14 type  2   force =    -3.74464904   -0.00615167   -4.87618054
     atom   15 type  2   force =     3.74464904    0.00615167   -4.87618054
     atom   16 type  2   force =     3.74445949    0.00736403    4.87571635
     atom   17 type  2   force =     0.00297850   -1.25788973   -0.00024844
     atom   18 type  2   force =    -0.00297850    1.25788973   -0.00024844
     atom   19 type  2   force =    -1.25788973   -0.00297850    0.00024844
     atom   20 type  2   force =     1.25788973    0.00297850    0.00024844
     The local contribution  to forces
     atom    1 type  3   force =    -0.00000000    0.00000000   -0.31138743
     atom    2 type  3   force =     0.00000000    0.00000000    0.31199517
     atom    3 type  3   force =     0.00000000    0.00000000   -0.31199517
     atom    4 type  3   force =     0.00000000    0.00000000    0.31138743
     atom    5 type  1   force =    -0.00258545  -16.74001680    0.00035783
     atom    6 type  1   force =     0.00258545   16.74001680    0.00035783
     atom    7 type  1   force =   -16.74001680    0.00258545   -0.00035783
     atom    8 type  1   force =    16.74001680   -0.00258545   -0.00035783
     atom    9 type  2   force =    -0.00595066    3.64588457   -4.85929320
     atom   10 type  2   force =     0.00721746   -3.64569385    4.85884319
     atom   11 type  2   force =    -0.00721746    3.64569385    4.85884319
     atom   12 type  2   force =     0.00595066   -3.64588457   -4.85929320
     atom   13 type  2   force =     3.64569385    0.00721746   -4.85884319
     atom   14 type  2   force =     3.64588457    0.00595066    4.85929320
     atom   15 type  2   force =    -3.64588457   -0.00595066    4.85929320
     atom   16 type  2   force =    -3.64569385   -0.00721746   -4.85884319
     atom   17 type  2   force =    -0.00299406    1.33664436    0.00024271
     atom   18 type  2   force =     0.00299406   -1.33664436    0.00024271
     atom   19 type  2   force =     1.33664436    0.00299406   -0.00024271
     atom   20 type  2   force =    -1.33664436   -0.00299406   -0.00024271
     The core correction contribution to forces
     atom    1 type  3   force =    -0.00000000   -0.00000000   -0.00030570
     atom    2 type  3   force =     0.00000000   -0.00000000    0.00030860
     atom    3 type  3   force =    -0.00000000    0.00000000   -0.00030860
     atom    4 type  3   force =    -0.00000000    0.00000000    0.00030570
     atom    5 type  1   force =    -0.00001279   -0.00011159    0.00000306
     atom    6 type  1   force =     0.00001279    0.00011159    0.00000306
     atom    7 type  1   force =    -0.00011159    0.00001279   -0.00000306
     atom    8 type  1   force =     0.00011159   -0.00001279   -0.00000306
     atom    9 type  2   force =     0.00001869   -0.01247259    0.00462462
     atom   10 type  2   force =    -0.00001960    0.01247076   -0.00462688
     atom   11 type  2   force =     0.00001960   -0.01247076   -0.00462688
     atom   12 type  2   force =    -0.00001869    0.01247259    0.00462462
     atom   13 type  2   force =    -0.01247076   -0.00001960    0.00462688
     atom   14 type  2   force =    -0.01247259   -0.00001869   -0.00462462
     atom   15 type  2   force =     0.01247259    0.00001869   -0.00462462
     atom   16 type  2   force =     0.01247076    0.00001960    0.00462688
     atom   17 type  2   force =     0.00001402    0.00247457    0.00000205
     atom   18 type  2   force =    -0.00001402   -0.00247457    0.00000205
     atom   19 type  2   force =     0.00247457   -0.00001402   -0.00000205
     atom   20 type  2   force =    -0.00247457    0.00001402   -0.00000205
     The Hubbard contrib.    to forces
     atom    1 type  3   force =     0.00000000    0.00000000    0.00000000
     atom    2 type  3   force =     0.00000000    0.00000000    0.00000000
     atom    3 type  3   force =     0.00000000    0.00000000    0.00000000
     atom    4 type  3   force =     0.00000000    0.00000000    0.00000000
     atom    5 type  1   force =     0.00000000    0.00000000    0.00000000
     atom    6 type  1   force =     0.00000000    0.00000000    0.00000000
     atom    7 type  1   force =     0.00000000    0.00000000    0.00000000
     atom    8 type  1   force =     0.00000000    0.00000000    0.00000000
     atom    9 type  2   force =     0.00000000    0.00000000    0.00000000
     atom   10 type  2   force =     0.00000000    0.00000000    0.00000000
     atom   11 type  2   force =     0.00000000    0.00000000    0.00000000
     atom   12 type  2   force =     0.00000000    0.00000000    0.00000000
     atom   13 type  2   force =     0.00000000    0.00000000    0.00000000
     atom   14 type  2   force =     0.00000000    0.00000000    0.00000000
     atom   15 type  2   force =     0.00000000    0.00000000    0.00000000
     atom   16 type  2   force =     0.00000000    0.00000000    0.00000000
     atom   17 type  2   force =     0.00000000    0.00000000    0.00000000
     atom   18 type  2   force =     0.00000000    0.00000000    0.00000000
     atom   19 type  2   force =     0.00000000    0.00000000    0.00000000
     atom   20 type  2   force =     0.00000000    0.00000000    0.00000000
     The SCF correction term to forces
     atom    1 type  3   force =     0.00000000   -0.00000000   -0.00000344
     atom    2 type  3   force =    -0.00000000    0.00000000    0.00000987
     atom    3 type  3   force =     0.00000000   -0.00000000   -0.00000987
     atom    4 type  3   force =    -0.00000000    0.00000000    0.00000344
     atom    5 type  1   force =     0.00000009   -0.00001522    0.00000991
     atom    6 type  1   force =    -0.00000009    0.00001522    0.00000991
     atom    7 type  1   force =    -0.00001522   -0.00000009   -0.00000991
     atom    8 type  1   force =     0.00001522    0.00000009   -0.00000991
     atom    9 type  2   force =    -0.00000003    0.00001345   -0.00000694
     atom   10 type  2   force =     0.00000000   -0.00001464    0.00000309
     atom   11 type  2   force =    -0.00000000    0.00001464    0.00000309
     atom   12 type  2   force =     0.00000003   -0.00001345   -0.00000694
     atom   13 type  2   force =     0.00001464    0.00000000   -0.00000309
     atom   14 type  2   force =     0.00001345    0.00000003    0.00000694
     atom   15 type  2   force =    -0.00001345   -0.00000003    0.00000694
     atom   16 type  2   force =    -0.00001464   -0.00000000   -0.00000309
     atom   17 type  2   force =    -0.00000003   -0.00000646    0.00000296
     atom   18 type  2   force =     0.00000003    0.00000646    0.00000296
     atom   19 type  2   force =    -0.00000646    0.00000003   -0.00000296
     atom   20 type  2   force =     0.00000646   -0.00000003   -0.00000296

     Total force =     0.000334     Total SCF correction =     0.000060
     SCF correction compared to forces is large: reduce conv_thr to get better values

     Computing stress (Cartesian axis) and pressure

     Message from routine stres:
     noncollinear stress + GGA not implemented

     Writing output data file CsSnI3.save/

     General routines

     Parallel routines

      57h

   This run was terminated on:  16:26:10  15Feb2021

   JOB DONE.