     Program PWSCF v.6.6 starts on 14Jan2021 at 19:14:38

     R & G space division:  proc/nbgrp/npool/nimage =      64
     Fft bands division:     nmany     =       1
     Waiting for input...
     Reading input from standard input

     Current dimensions of program PWSCF are:
     Max number of different atomic species (ntypx) = 10
     Max number of k-points (npk) =  40000
     Max angular momentum in pseudopotentials (lmaxx) =  3
     file Cs.pbe-spn-kjpaw_psl.1.0.0.UPF: wavefunction(s)  5S 6S renormalized
     file Sn.pbe-dn-kjpaw_psl.1.0.0.UPF: wavefunction(s)  5S 5P 4D renormalized
     file I.pbe-n-kjpaw_psl.1.0.0.UPF: wavefunction(s)  5S renormalized

     Subspace diagonalization in iterative solution of the eigenvalue problem:
     a serial algorithm will be used

     Title:
     CsSnI3

     bravais-lattice index     =            8
     lattice parameter (alat)  =       9.1225  a.u.
     unit-cell volume          =    6334.6921 (a.u.)^3
     number of atoms/cell      =           20
     number of atomic types    =            3
     number of electrons       =       176.00
     number of Kohn-Sham states=           88
     kinetic-energy cutoff     =      80.0000  Ry
     charge density cutoff     =     450.0000  Ry
     convergence threshold     =      1.0E-06
     mixing beta               =       0.5000
     number of iterations used =            8  plain     mixing
     Exchange-correlation= SLA PW PBX PBC
                           (   1   4   3   4   0   0   0)

     celldm(1)=   9.122542  celldm(2)=   2.224752  celldm(3)=   3.750562
     celldm(4)=   0.000000  celldm(5)=   0.000000  celldm(6)=   0.000000

     crystal axes: (cart. coord. in units of alat)
               a(1) = (   1.000000   0.000000   0.000000 )
               a(2) = (   0.000000   2.224752   0.000000 )
               a(3) = (   0.000000   0.000000   3.750562 )

     reciprocal axes: (cart. coord. in units 2 pi/alat)
               b(1) = (  1.000000  0.000000  0.000000 )
               b(2) = (  0.000000  0.449488  0.000000 )
               b(3) = (  0.000000  0.000000  0.266627 )

     PseudoPot. # 1 for Cs read from file:
     /scratch/gtenti/degironcoli/pseudo/Cs.pbe-spn-kjpaw_psl.1.0.0.UPF
     MD5 check sum: b82c75cc2e1f4ff73b6412cffeb9c584
     Pseudo is Projector augmented-wave + core cor, Zval =  9.0
     Generated using "atomic" code by A. Dal Corso v.6.4.1
     Shape of augmentation charge: PSQ
     Using radial grid of 1251 points,  9 beta functions with:
                l(1) =   0
                l(2) =   0
                l(3) =   0
                l(4) =   1
                l(5) =   1
                l(6) =   2
                l(7) =   2
                l(8) =   3
                l(9) =   3
     Q(r) pseudized with 0 coefficients

     PseudoPot. # 2 for Sn read from file:
     /scratch/gtenti/degironcoli/pseudo/Sn.pbe-dn-kjpaw_psl.1.0.0.UPF
     MD5 check sum: 67f11dec737d427557dc41ea34975807
     Pseudo is Projector augmented-wave + core cor, Zval = 14.0
     Generated using "atomic" code by A. Dal Corso v.6.3
     Shape of augmentation charge: PSQ
     Using radial grid of 1243 points,  6 beta functions with:
                l(1) =   0
                l(2) =   0
                l(3) =   1
                l(4) =   1
                l(5) =   2
                l(6) =   2
     Q(r) pseudized with 0 coefficients

     PseudoPot. # 3 for I  read from file:
     /scratch/gtenti/degironcoli/pseudo/I.pbe-n-kjpaw_psl.1.0.0.UPF
     MD5 check sum: cd3d296c3308a581e1559a0c8a554cb5
     Pseudo is Projector augmented-wave + core cor, Zval =  7.0
     Generated using "atomic" code by A. Dal Corso v.6.3
     Shape of augmentation charge: PSQ
     Using radial grid of 1247 points,  6 beta functions with:
                l(1) =   0
                l(2) =   0
                l(3) =   1
                l(4) =   1
                l(5) =   2
                l(6) =   2
     Q(r) pseudized with 0 coefficients

     atomic species   valence    mass     pseudopotential
        Cs             9.00   132.90000     Cs( 1.00)
        Sn            14.00   118.70000     Sn( 1.00)
        I              7.00   126.90000     I ( 1.00)

      8 Sym. Ops., with inversion, found ( 6 have fractional translation)

                                    s                        frac. trans.

      isym =  1     identity

 cryst.   s( 1) = (     1          0          0      )
                  (     0          1          0      )
                  (     0          0          1      )

 cart.    s( 1) = (  1.0000000  0.0000000  0.0000000 )
                  (  0.0000000  1.0000000  0.0000000 )
                  (  0.0000000  0.0000000  1.0000000 )

      isym =  2     180 deg rotation - cart. axis [0,0,1]

 cryst.   s( 2) = (    -1          0          0      )    f =(  0.0000000 )
                  (     0         -1          0      )       (  0.5000000 )
                  (     0          0          1      )       (  0.5000000 )

 cart.    s( 2) = ( -1.0000000  0.0000000  0.0000000 )    f =(  0.0000000 )
                  (  0.0000000 -1.0000000  0.0000000 )       (  1.1123758 )
                  (  0.0000000  0.0000000  1.0000000 )       (  1.8752812 )

[...]

      isym =  4     180 deg rotation - cart. axis [1,0,0]

[...]

      isym =  5     inversion

 cryst.   s( 5) = (    -1          0          0      )
                  (     0         -1          0      )
                  (     0          0         -1      )

 cart.    s( 5) = ( -1.0000000  0.0000000  0.0000000 )
                  (  0.0000000 -1.0000000  0.0000000 )
                  (  0.0000000  0.0000000 -1.0000000 )

      isym =  6     inv. 180 deg rotation - cart. axis [0,0,1]

[...]

      isym =  8     inv. 180 deg rotation - cart. axis [1,0,0]

 cryst.   s( 8) = (    -1          0          0      )    f =(  0.5000000 )
                  (     0          1          0      )       (  0.0000000 )
                  (     0          0          1      )       (  0.0000000 )

 cart.    s( 8) = ( -1.0000000  0.0000000  0.0000000 )    f =(  0.5000000 )
                  (  0.0000000  1.0000000  0.0000000 )       (  0.0000000 )
                  (  0.0000000  0.0000000  1.0000000 )       (  0.0000000 )

     point group D_2h (mmm)
     there are  8 classes
     the character table:

       E     C2    C2'   C2''  i     s_v   s_v'  s_v''
A_g    1.00  1.00  1.00  1.00  1.00  1.00  1.00  1.00
B_1g   1.00  1.00 -1.00 -1.00  1.00  1.00 -1.00 -1.00
B_2g   1.00 -1.00  1.00 -1.00  1.00 -1.00  1.00 -1.00
B_3g   1.00 -1.00 -1.00  1.00  1.00 -1.00 -1.00  1.00
A_u    1.00  1.00  1.00  1.00 -1.00 -1.00 -1.00 -1.00
B_1u   1.00  1.00 -1.00 -1.00 -1.00 -1.00  1.00  1.00
B_2u   1.00 -1.00  1.00 -1.00 -1.00  1.00 -1.00  1.00
B_3u   1.00 -1.00 -1.00  1.00 -1.00  1.00  1.00 -1.00

     the symmetry operations in each class and the name of the first element:

     E        1
          identity
     C2       2
          180 deg rotation - cart. axis [0,0,1]
     C2'      4
          180 deg rotation - cart. axis [1,0,0]
     C2''     3
          180 deg rotation - cart. axis [0,1,0]
     i        5
          inversion
     s_v      6
          inv. 180 deg rotation - cart. axis [0,0,1]
     s_v'     8
          inv. 180 deg rotation - cart. axis [1,0,0]
     s_v''    7
          inv. 180 deg rotation - cart. axis [0,1,0]

   Cartesian axes

     site n.     atom                  positions (alat units)
         1           Cs  tau(   1) = (   0.2500000   0.1850649   2.5139655  )
         2           Cs  tau(   2) = (   0.7500000   2.0396868   1.2365968  )
         3           Cs  tau(   3) = (   0.2500000   1.2974407   3.1118779  )
         4           Cs  tau(   4) = (   0.7500000   0.9273110   0.6386844  )
         5           Sn  tau(   5) = (   0.2500000   0.7598065   1.6468539  )
         6           Sn  tau(   6) = (   0.7500000   1.4649452   2.1037084  )
         7           Sn  tau(   7) = (   0.2500000   1.8721824   0.2284272  )
         8           Sn  tau(   8) = (   0.7500000   0.3525693   3.5221351  )
         9           I   tau(   9) = (   0.7500000   0.0580542   0.4195120  )
        10           I   tau(  10) = (   0.2500000   2.1666975   3.3310503  )
        11           I   tau(  11) = (   0.7500000   1.1704301   1.4557691  )
        12           I   tau(  12) = (   0.2500000   1.0543216   2.2947932  )
        13           I   tau(  13) = (   0.7500000   0.6521326   2.9693866  )
        14           I   tau(  14) = (   0.2500000   1.5726191   0.7811757  )
        15           I   tau(  15) = (   0.7500000   1.7645084   2.6564569  )
        16           I   tau(  16) = (   0.2500000   0.4602433   1.0941054  )
        17           I   tau(  17) = (   0.7500000   0.3744355   1.8713491  )
        18           I   tau(  18) = (   0.2500000   1.8503162   1.8792132  )
        19           I   tau(  19) = (   0.7500000   1.4868113   0.0039321  )
        20           I   tau(  20) = (   0.2500000   0.7379403   3.7466302  )

   Crystallographic axes

     site n.     atom                  positions (cryst. coord.)
         1           Cs  tau(   1) = (  0.2500000  0.0831845  0.6702903  )
         2           Cs  tau(   2) = (  0.7500000  0.9168155  0.3297097  )
         3           Cs  tau(   3) = (  0.2500000  0.5831845  0.8297097  )
         4           Cs  tau(   4) = (  0.7500000  0.4168155  0.1702903  )
         5           Sn  tau(   5) = (  0.2500000  0.3415242  0.4390952  )
         6           Sn  tau(   6) = (  0.7500000  0.6584758  0.5609048  )
         7           Sn  tau(   7) = (  0.2500000  0.8415242  0.0609048  )
         8           Sn  tau(   8) = (  0.7500000  0.1584758  0.9390952  )
         9           I   tau(   9) = (  0.7500000  0.0260947  0.1118531  )
        10           I   tau(  10) = (  0.2500000  0.9739053  0.8881469  )
        11           I   tau(  11) = (  0.7500000  0.5260947  0.3881469  )
        12           I   tau(  12) = (  0.2500000  0.4739053  0.6118531  )
        13           I   tau(  13) = (  0.7500000  0.2931260  0.7917177  )
        14           I   tau(  14) = (  0.2500000  0.7068740  0.2082823  )
        15           I   tau(  15) = (  0.7500000  0.7931260  0.7082823  )
        16           I   tau(  16) = (  0.2500000  0.2068740  0.2917177  )
        17           I   tau(  17) = (  0.7500000  0.1683044  0.4989516  )
        18           I   tau(  18) = (  0.2500000  0.8316956  0.5010484  )
        19           I   tau(  19) = (  0.7500000  0.6683044  0.0010484  )
        20           I   tau(  20) = (  0.2500000  0.3316956  0.9989516  )

     number of k points=     8
                       cart. coord. in units 2pi/alat
        k(    1) = (   0.1250000   0.0561860   0.0333283), wk =   0.2500000
        k(    2) = (   0.1250000   0.0561860   0.0999850), wk =   0.2500000
        k(    3) = (   0.1250000   0.1685581   0.0333283), wk =   0.2500000
        k(    4) = (   0.1250000   0.1685581   0.0999850), wk =   0.2500000
        k(    5) = (   0.3750000   0.0561860   0.0333283), wk =   0.2500000
        k(    6) = (   0.3750000   0.0561860   0.0999850), wk =   0.2500000
[...]
     1.0000   1.0000   1.0000   1.0000   1.0000   1.0000   1.0000   1.0000
     1.0000   1.0000   1.0000   1.0000   1.0000   1.0000   1.0000   1.0000
     1.0000   1.0000   1.0000   1.0000   1.0000   1.0000   1.0000   1.0000
     1.0000   1.0000   1.0000   1.0000   1.0000   1.0000   1.0000   1.0000
     1.0000   1.0000   1.0000   1.0000   1.0000   1.0000   1.0000   1.0000

[...]

          k = 0.3750 0.1686 0.1000 ( 76619 PWs)   bands (ev):

   -17.8090 -17.8090 -17.8089 -17.8089 -17.8078 -17.8078 -17.8077 -17.8077
   -17.7965 -17.7965 -17.7962 -17.7962 -17.7898 -17.7898 -17.7892 -17.7892
   -17.7857 -17.7857 -17.7851 -17.7851 -17.7145 -17.7145 -17.7142 -17.7142
    -8.5317  -8.5300  -8.4432  -8.4416  -8.3322  -8.3306  -8.2635  -8.2617
    -8.2359  -8.2342  -8.2283  -8.2258  -4.6846  -4.6823  -4.6621  -4.6596
    -4.5439  -4.5431  -4.5383  -4.5375  -4.5164  -4.5134  -4.5083  -4.5064
    -3.1121  -3.1076  -3.0635  -3.0606   0.2256   0.2308   0.3290   0.3310
     0.5262   0.5357   0.5927   0.6002   0.7169   0.7339   1.0544   1.0679
     1.3883   1.3987   1.5577   1.5785   1.6993   1.7222   1.7728   1.8020
     1.8207   1.8566   1.8645   1.8771   1.9595   1.9701   2.0108   2.0492
     2.1063   2.1374   2.2168   2.2314   2.8089   2.8812   2.9835   2.9966

     occupation numbers
     1.0000   1.0000   1.0000   1.0000   1.0000   1.0000   1.0000   1.0000
     1.0000   1.0000   1.0000   1.0000   1.0000   1.0000   1.0000   1.0000
     1.0000   1.0000   1.0000   1.0000   1.0000   1.0000   1.0000   1.0000
     1.0000   1.0000   1.0000   1.0000   1.0000   1.0000   1.0000   1.0000
     1.0000   1.0000   1.0000   1.0000   1.0000   1.0000   1.0000   1.0000
     1.0000   1.0000   1.0000   1.0000   1.0000   1.0000   1.0000   1.0000
     1.0000   1.0000   1.0000   1.0000   1.0000   1.0000   1.0000   1.0000
     1.0000   1.0000   1.0000   1.0000   1.0000   1.0000   1.0000   1.0000
     1.0000   1.0000   1.0000   1.0000   1.0000   1.0000   1.0000   1.0000
     1.0000   1.0000   1.0000   1.0000   1.0000   1.0000   1.0000   1.0000
     1.0000   1.0000   1.0000   1.0000   1.0000   1.0000   1.0000   1.0000

     highest occupied level (ev):     3.0671

!    total energy              =   -7979.66782615 Ry

     total all-electron energy =   -282510.822539 Ry
     estimated scf accuracy    <       0.00000064 Ry

     The total energy is the sum of the following terms:
     one-electron contribution =    -461.41677345 Ry
     hartree contribution      =     315.80685663 Ry
     xc contribution           =    -465.92616760 Ry
     ewald contribution        =    -634.99218634 Ry
     one-center paw contrib.   =   -6733.13955539 Ry
      -> PAW hartree energy AE =      25.63649401 Ry
      -> PAW hartree energy PS =     -25.52692682 Ry
      -> PAW xc energy AE      =    -383.53070676 Ry
      -> PAW xc energy PS      =      20.51532225 Ry
      -> total E_H with PAW    =     315.91642382 Ry
      -> total E_XC with PAW   =    -828.94155211 Ry

     convergence has been achieved in  11 iterations

     Forces acting on atoms (cartesian axes, Ry/au):

     atom    1 type  1   force =     0.00000000   -0.00059652    0.00036295
     atom    2 type  1   force =     0.00000000    0.00059652   -0.00036295
     atom    3 type  1   force =     0.00000000   -0.00059652   -0.00036295
     atom    4 type  1   force =     0.00000000    0.00059652    0.00036295
     atom    5 type  2   force =     0.00000000   -0.00016877    0.00055883
     atom    6 type  2   force =     0.00000000    0.00016877   -0.00055883
     atom    7 type  2   force =     0.00000000   -0.00016877   -0.00055883
     atom    8 type  2   force =     0.00000000    0.00016877    0.00055883
     atom    9 type  3   force =     0.00000000    0.00016143    0.00017962
     atom   10 type  3   force =     0.00000000   -0.00016143   -0.00017962
     atom   11 type  3   force =     0.00000000    0.00016143   -0.00017962
     atom   12 type  3   force =     0.00000000   -0.00016143    0.00017962
     atom   13 type  3   force =     0.00000000    0.00025536   -0.00100870
     atom   14 type  3   force =     0.00000000   -0.00025536    0.00100870
     atom   15 type  3   force =     0.00000000    0.00025536    0.00100870
     atom   16 type  3   force =     0.00000000   -0.00025536   -0.00100870
     atom   17 type  3   force =     0.00000000   -0.00081116    0.00049263
     atom   18 type  3   force =     0.00000000    0.00081116   -0.00049263
     atom   19 type  3   force =     0.00000000   -0.00081116   -0.00049263
     atom   20 type  3   force =     0.00000000    0.00081116    0.00049263
     The non-local contrib.  to forces
     atom    1 type  1   force =     0.00000000    0.00227778   -0.00227882
     atom    2 type  1   force =     0.00000000   -0.00227778    0.00227882
     atom    3 type  1   force =     0.00000000    0.00227778    0.00227882
     atom    4 type  1   force =     0.00000000   -0.00227778   -0.00227882
     atom    5 type  2   force =     0.00000000   -0.08736212   -0.13122947
     atom    6 type  2   force =     0.00000000    0.08736212    0.13122947
     atom    7 type  2   force =     0.00000000   -0.08736212    0.13122947
     atom    8 type  2   force =     0.00000000    0.08736212   -0.13122947
     atom    9 type  3   force =     0.00000000   -0.04742874   -0.04688172
     atom   10 type  3   force =     0.00000000    0.04742874    0.04688172
     atom   11 type  3   force =     0.00000000   -0.04742874    0.04688172
     atom   12 type  3   force =     0.00000000    0.04742874   -0.04688172
     atom   13 type  3   force =    -0.00000000   -0.03248350    0.05558725
     atom   14 type  3   force =     0.00000000    0.03248350   -0.05558725
     atom   15 type  3   force =    -0.00000000   -0.03248350   -0.05558725
     atom   16 type  3   force =     0.00000000    0.03248350    0.05558725
     atom   17 type  3   force =     0.00000000    0.05453593   -0.01634824
     atom   18 type  3   force =     0.00000000   -0.05453593    0.01634824
     atom   19 type  3   force =     0.00000000    0.05453593    0.01634824
     atom   20 type  3   force =     0.00000000   -0.05453593   -0.01634824
     The ionic contribution  to forces
     atom    1 type  1   force =    -0.00000000    0.03077255    0.43317335
     atom    2 type  1   force =     0.00000000   -0.03077255   -0.43317335
     atom    3 type  1   force =    -0.00000000    0.03077255   -0.43317335
     atom    4 type  1   force =    -0.00000000   -0.03077255    0.43317335
     atom    5 type  2   force =     0.00000000   -2.44078114   -1.60480832
     atom    6 type  2   force =     0.00000000    2.44078114    1.60480832
     atom    7 type  2   force =     0.00000000   -2.44078114    1.60480832
     atom    8 type  2   force =    -0.00000000    2.44078114   -1.60480832
     atom    9 type  3   force =     0.00000000    2.99719434    5.14146732
     atom   10 type  3   force =     0.00000000   -2.99719434   -5.14146732
     atom   11 type  3   force =    -0.00000000    2.99719434   -5.14146732
     atom   12 type  3   force =    -0.00000000   -2.99719434    5.14146732
     atom   13 type  3   force =     0.00000000    2.01702576   -3.76181498
     atom   14 type  3   force =    -0.00000000   -2.01702576    3.76181498
     atom   15 type  3   force =    -0.00000000    2.01702576    3.76181498
     atom   16 type  3   force =     0.00000000   -2.01702576   -3.76181498
     atom   17 type  3   force =     0.00000000   -4.20202707    2.10976133
     atom   18 type  3   force =    -0.00000000    4.20202707   -2.10976133
     atom   19 type  3   force =     0.00000000   -4.20202707   -2.10976133
     atom   20 type  3   force =     0.00000000    4.20202707    2.10976133
     The local contribution  to forces
     atom    1 type  1   force =    -0.00000000   -0.03356041   -0.43074492
     atom    2 type  1   force =     0.00000000    0.03356041    0.43074492
     atom    3 type  1   force =    -0.00000000   -0.03356041    0.43074492
     atom    4 type  1   force =     0.00000000    0.03356041   -0.43074492
     atom    5 type  2   force =     0.00000000    2.52717307    1.73628914
     atom    6 type  2   force =     0.00000000   -2.52717307   -1.73628914
     atom    7 type  2   force =     0.00000000    2.52717307   -1.73628914
     atom    8 type  2   force =     0.00000000   -2.52717307    1.73628914
     atom    9 type  3   force =    -0.00000000   -2.95579370   -5.10059212
     atom   10 type  3   force =     0.00000000    2.95579370    5.10059212
     atom   11 type  3   force =    -0.00000000   -2.95579370    5.10059212
     atom   12 type  3   force =     0.00000000    2.95579370   -5.10059212
     atom   13 type  3   force =     0.00000000   -1.98847256    3.71257206
     atom   14 type  3   force =    -0.00000000    1.98847256   -3.71257206
     atom   15 type  3   force =    -0.00000000   -1.98847256   -3.71257206
     atom   16 type  3   force =     0.00000000    1.98847256    3.71257206
     atom   17 type  3   force =    -0.00000000    4.15386632   -2.09534328
     atom   18 type  3   force =     0.00000000   -4.15386632    2.09534328
     atom   19 type  3   force =    -0.00000000    4.15386632    2.09534328
     atom   20 type  3   force =     0.00000000   -4.15386632   -2.09534328
     The core correction contribution to forces
     atom    1 type  1   force =    -0.00000000   -0.00018311    0.00018406
     atom    2 type  1   force =     0.00000000    0.00018311   -0.00018406
     atom    3 type  1   force =    -0.00000000   -0.00018311   -0.00018406
     atom    4 type  1   force =    -0.00000000    0.00018311    0.00018406
     atom    5 type  2   force =    -0.00000000    0.00011624    0.00006250
     atom    6 type  2   force =     0.00000000   -0.00011624   -0.00006250
     atom    7 type  2   force =    -0.00000000    0.00011624   -0.00006250
     atom    8 type  2   force =     0.00000000   -0.00011624    0.00006250
     atom    9 type  3   force =     0.00000000    0.00630573    0.00646660
     atom   10 type  3   force =    -0.00000000   -0.00630573   -0.00646660
     atom   11 type  3   force =     0.00000000    0.00630573   -0.00646660
     atom   12 type  3   force =    -0.00000000   -0.00630573    0.00646660
     atom   13 type  3   force =    -0.00000000    0.00428961   -0.00741237
     atom   14 type  3   force =     0.00000000   -0.00428961    0.00741237
     atom   15 type  3   force =    -0.00000000    0.00428961    0.00741237
     atom   16 type  3   force =     0.00000000   -0.00428961   -0.00741237
     atom   17 type  3   force =    -0.00000000   -0.00748683    0.00244770
     atom   18 type  3   force =    -0.00000000    0.00748683   -0.00244770
     atom   19 type  3   force =     0.00000000   -0.00748683   -0.00244770
     atom   20 type  3   force =    -0.00000000    0.00748683    0.00244770
     The Hubbard contrib.    to forces
     atom    1 type  1   force =     0.00000000    0.00000000    0.00000000
     atom    2 type  1   force =     0.00000000    0.00000000    0.00000000
     atom    3 type  1   force =     0.00000000    0.00000000    0.00000000
     atom    4 type  1   force =     0.00000000    0.00000000    0.00000000
     atom    5 type  2   force =     0.00000000    0.00000000    0.00000000
     atom    6 type  2   force =     0.00000000    0.00000000    0.00000000
     atom    7 type  2   force =     0.00000000    0.00000000    0.00000000
     atom    8 type  2   force =     0.00000000    0.00000000    0.00000000
     atom    9 type  3   force =     0.00000000    0.00000000    0.00000000
     atom   10 type  3   force =     0.00000000    0.00000000    0.00000000
     atom   11 type  3   force =     0.00000000    0.00000000    0.00000000
     atom   12 type  3   force =     0.00000000    0.00000000    0.00000000
     atom   13 type  3   force =     0.00000000    0.00000000    0.00000000
     atom   14 type  3   force =     0.00000000    0.00000000    0.00000000
     atom   15 type  3   force =     0.00000000    0.00000000    0.00000000
     atom   16 type  3   force =     0.00000000    0.00000000    0.00000000
     atom   17 type  3   force =     0.00000000    0.00000000    0.00000000
     atom   18 type  3   force =     0.00000000    0.00000000    0.00000000
     atom   19 type  3   force =     0.00000000    0.00000000    0.00000000
     atom   20 type  3   force =     0.00000000    0.00000000    0.00000000
     The SCF correction term to forces
     atom    1 type  1   force =    -0.00000000    0.00009667    0.00002928
     atom    2 type  1   force =     0.00000000   -0.00009667   -0.00002928
     atom    3 type  1   force =     0.00000000    0.00009667   -0.00002928
     atom    4 type  1   force =    -0.00000000   -0.00009667    0.00002928
     atom    5 type  2   force =     0.00000000    0.00068518    0.00024498
     atom    6 type  2   force =    -0.00000000   -0.00068518   -0.00024498
     atom    7 type  2   force =     0.00000000    0.00068518   -0.00024498
     atom    8 type  2   force =    -0.00000000   -0.00068518    0.00024498
     atom    9 type  3   force =    -0.00000000   -0.00011620   -0.00028045
     atom   10 type  3   force =    -0.00000000    0.00011620    0.00028045
     atom   11 type  3   force =    -0.00000000   -0.00011620    0.00028045
     atom   12 type  3   force =     0.00000000    0.00011620   -0.00028045
     atom   13 type  3   force =     0.00000000   -0.00010395    0.00005933
     atom   14 type  3   force =    -0.00000000    0.00010395   -0.00005933
     atom   15 type  3   force =    -0.00000000   -0.00010395   -0.00005933
     atom   16 type  3   force =     0.00000000    0.00010395    0.00005933
     atom   17 type  3   force =     0.00000000    0.00030050   -0.00002488
     atom   18 type  3   force =    -0.00000000   -0.00030050    0.00002488
     atom   19 type  3   force =     0.00000000    0.00030050    0.00002488
     atom   20 type  3   force =     0.00000000   -0.00030050   -0.00002488

     Total force =     0.003388     Total SCF correction =     0.001717
     SCF correction compared to forces is large: reduce conv_thr to get better values

     Computing stress (Cartesian axis) and pressure

          total   stress  (Ry/bohr**3)                   (kbar)     P=        0.54
   0.00000265   0.00000000   0.00000000            0.39        0.00        0.00
   0.00000000   0.00000397   0.00000000            0.00        0.58        0.00
   0.00000000   0.00000000   0.00000445            0.00        0.00        0.65

     kinetic stress (kbar)   5554.09      0.00      0.00
                                0.00   5566.13      0.00
                                0.00      0.00   5559.81

     local   stress (kbar)  -4516.22     -0.00      0.00
                               -0.00  -1884.53      0.00
                                0.00      0.00   -985.06

     nonloc. stress (kbar)   1149.19      0.00      0.00
                                0.00   1147.94      0.00
                                0.00      0.00   1150.58

     hartree stress (kbar)   3411.29     -0.00      0.00
                               -0.00   2198.14     -0.00
                                0.00     -0.00   1724.28

     exc-cor stress (kbar)   5477.33     -0.00     -0.00
                               -0.00   5476.99     -0.00
                               -0.00     -0.00   5477.43

     corecor stress (kbar)  -7253.06      0.00      0.00
                                0.00  -7253.42      0.00
                                0.00      0.00  -7253.39

     ewald   stress (kbar)  -3822.23     -0.00      0.00
                               -0.00  -5250.65     -0.00
                                0.00     -0.00  -5672.99

     hubbard stress (kbar)      0.00      0.00      0.00
                                0.00      0.00      0.00
                                0.00      0.00      0.00

     DFT-D   stress (kbar)      0.00      0.00      0.00
                                0.00      0.00      0.00
                                0.00      0.00      0.00

     XDM     stress (kbar)      0.00      0.00      0.00
                                0.00      0.00      0.00
                                0.00      0.00      0.00

     dft-nl  stress (kbar)      0.00      0.00      0.00
                                0.00      0.00      0.00
                                0.00      0.00      0.00

     TS-vdW  stress (kbar)      0.00      0.00      0.00
                                0.00      0.00      0.00
                                0.00      0.00      0.00

     Writing output data file ./CsSnI3.save/

     General routines

     Parallel routines

     PAW routines

   This run was terminated on:  19:18:20  14Jan2021

   JOB DONE.