     Program PWSCF v.6.7MaX starts on 15Jan2021 at 12:25:19

     R & G space division:  proc/nbgrp/npool/nimage =      32
     Waiting for input...
     Reading input from standard input

     Current dimensions of program PWSCF are:
     Max number of different atomic species (ntypx) = 10
     Max number of k-points (npk) =  40000
     Max angular momentum in pseudopotentials (lmaxx) =  3
     file Sn.pbe-dn-kjpaw_psl.1.0.0.UPF: wavefunction(s)  5S 5P 4D renormalized
     file I.pbe-n-kjpaw_psl.1.0.0.UPF: wavefunction(s)  5S renormalized

     Subspace diagonalization in iterative solution of the eigenvalue problem:
     a serial algorithm will be used

     Message from routine setup:
     using ibrav=0 with symmetry is DISCOURAGED, use correct ibrav instead

     Title:
     SnI2tetr

     bravais-lattice index     =            0
     lattice parameter (alat)  =      14.4199  a.u.
     unit-cell volume          =    1845.1511 (a.u.)^3
     number of atoms/cell      =            6
     number of atomic types    =            2
     number of electrons       =        56.00
     number of Kohn-Sham states=           28
     kinetic-energy cutoff     =      70.0000  Ry
     charge density cutoff     =     280.0000  Ry
     scf convergence threshold =      1.0E-06
     mixing beta               =       0.7000
     number of iterations used =            8  plain     mixing
     Exchange-correlation= SLA  PW   PBX  PBC
                           (   1   4   3   4   0   0   0)

     celldm(1)=  14.419944  celldm(2)=   0.000000  celldm(3)=   0.000000
     celldm(4)=   0.000000  celldm(5)=   0.000000  celldm(6)=   0.000000

     crystal axes: (cart. coord. in units of alat)
               a(1) = (   1.000000   0.000000   0.000000 )
               a(2) = (   0.000000   1.000000   0.000000 )
               a(3) = (   0.000000   0.000000   0.615377 )

     reciprocal axes: (cart. coord. in units 2 pi/alat)
               b(1) = (  1.000000  0.000000  0.000000 )
               b(2) = (  0.000000  1.000000  0.000000 )
               b(3) = (  0.000000  0.000000  1.625020 )

     PseudoPot. # 1 for Sn read from file:
     ../../../pseudo/Sn.pbe-dn-kjpaw_psl.1.0.0.UPF
     MD5 check sum: 67f11dec737d427557dc41ea34975807
     Pseudo is Projector augmented-wave + core cor, Zval = 14.0
     Generated using &quot;atomic&quot; code by A. Dal Corso  v.6.3
     Shape of augmentation charge: PSQ
     Using radial grid of 1243 points,  6 beta functions with:
                l(1) =   0
                l(2) =   0
                l(3) =   1
                l(4) =   1
                l(5) =   2
                l(6) =   2
     Q(r) pseudized with 0 coefficients

     PseudoPot. # 2 for I  read from file:
     ../../../pseudo/I.pbe-n-kjpaw_psl.1.0.0.UPF
     MD5 check sum: cd3d296c3308a581e1559a0c8a554cb5
     Pseudo is Projector augmented-wave + core cor, Zval =  7.0
     Generated using &quot;atomic&quot; code by A. Dal Corso  v.6.3
     Shape of augmentation charge: PSQ
     Using radial grid of 1247 points,  6 beta functions with:
                l(1) =   0
                l(2) =   0
                l(3) =   1
                l(4) =   1
                l(5) =   2
                l(6) =   2
     Q(r) pseudized with 0 coefficients

     atomic species   valence    mass     pseudopotential
        Sn            14.00   118.70000     Sn( 1.00)
        I              7.00   126.90000     I ( 1.00)

     16 Sym. Ops., with inversion, found ( 8 have fractional translation)

                                    s                        frac. trans.

      isym =  1     identity

 cryst.   s( 1) = (     1          0          0      )
                  (     0          1          0      )
                  (     0          0          1      )

 cart.    s( 1) = (  1.0000000  0.0000000  0.0000000 )
                  (  0.0000000  1.0000000  0.0000000 )
                  (  0.0000000  0.0000000  1.0000000 )

      isym =  2     180 deg rotation - cart. axis [0,0,1]

[...]

 cryst.   s( 3) = (    -1          0          0      )    f =(  0.5000000 )
                  (     0          1          0      )       ( -0.5000000 )
                  (     0          0         -1      )       (  0.5000000 )

 cart.    s( 3) = ( -1.0000000  0.0000000  0.0000000 )    f =(  0.5000000 )
                  (  0.0000000  1.0000000  0.0000000 )       ( -0.5000000 )
                  (  0.0000000  0.0000000 -1.0000000 )       (  0.3076884 )

[...]

      isym =  8      90 deg rotation - cart. axis [0,0,1]

 cryst.   s( 8) = (     0          1          0      )    f =(  0.5000000 )
                  (    -1          0          0      )       ( -0.5000000 )
                  (     0          0          1      )       ( -0.5000000 )

 cart.    s( 8) = (  0.0000000 -1.0000000  0.0000000 )    f =(  0.5000000 )
                  (  1.0000000  0.0000000  0.0000000 )       ( -0.5000000 )
                  (  0.0000000  0.0000000  1.0000000 )       ( -0.3076884 )

      isym =  9     inversion

 cryst.   s( 9) = (    -1          0          0      )
                  (     0         -1          0      )
                  (     0          0         -1      )

 cart.    s( 9) = ( -1.0000000  0.0000000  0.0000000 )
                  (  0.0000000 -1.0000000  0.0000000 )
                  (  0.0000000  0.0000000 -1.0000000 )

      isym = 10     inv. 180 deg rotation - cart. axis [0,0,1]

 cryst.   s(10) = (     1          0          0      )
                  (     0          1          0      )
                  (     0          0         -1      )

 cart.    s(10) = (  1.0000000  0.0000000  0.0000000 )
                  (  0.0000000  1.0000000  0.0000000 )
                  (  0.0000000  0.0000000 -1.0000000 )

[...]

 cryst.   s(11) = (     1          0          0      )    f =( -0.5000000 )
                  (     0         -1          0      )       (  0.5000000 )
                  (     0          0          1      )       ( -0.5000000 )

 cart.    s(11) = (  1.0000000  0.0000000  0.0000000 )    f =( -0.5000000 )
                  (  0.0000000 -1.0000000  0.0000000 )       (  0.5000000 )
                  (  0.0000000  0.0000000  1.0000000 )       ( -0.3076884 )

[...]

 cryst.   s(14) = (     0          1          0      )
                  (     1          0          0      )
                  (     0          0          1      )

 cart.    s(14) = (  0.0000000  1.0000000  0.0000000 )
                  (  1.0000000  0.0000000  0.0000000 )
                  (  0.0000000  0.0000000  1.0000000 )

[...]

      isym = 16     inv.  90 deg rotation - cart. axis [0,0,1]

 cryst.   s(16) = (     0         -1          0      )    f =( -0.5000000 )
                  (     1          0          0      )       (  0.5000000 )
                  (     0          0         -1      )       (  0.5000000 )

 cart.    s(16) = (  0.0000000  1.0000000  0.0000000 )    f =( -0.5000000 )
                  ( -1.0000000  0.0000000  0.0000000 )       (  0.5000000 )
                  (  0.0000000  0.0000000 -1.0000000 )       (  0.3076884 )

   Cartesian axes

     site n.     atom                  positions (alat units)
         1           Sn  tau(   1) = (   0.0000000   0.0000000   0.0000000  )
         2           Sn  tau(   2) = (   0.5000000   0.5000000   0.3076884  )
         3           I   tau(   3) = (   0.2985210   0.2985210   0.0000000  )
         4           I   tau(   4) = (   0.7014790   0.7014790   0.0000000  )
         5           I   tau(   5) = (   0.7985210   0.2014790   0.3076884  )
         6           I   tau(   6) = (   0.2014790   0.7985210   0.3076884  )

   Crystallographic axes

     site n.     atom                  positions (cryst. coord.)
         1           Sn  tau(   1) = (  0.0000000  0.0000000  0.0000000  )
         2           Sn  tau(   2) = (  0.5000000  0.5000000  0.5000000  )
         3           I   tau(   3) = (  0.2985210  0.2985210  0.0000000  )
         4           I   tau(   4) = (  0.7014790  0.7014790  0.0000000  )
         5           I   tau(   5) = (  0.7985210  0.2014790  0.5000000  )
         6           I   tau(   6) = (  0.2014790  0.7985210  0.5000000  )

     number of k points=    75
                       cart. coord. in units 2pi/alat
        k(    1) = (   0.0000000   0.0000000   0.0000000), wk =   0.0027435
        k(    2) = (   0.0000000   0.0000000   0.1805578), wk =   0.0054870
        k(    3) = (   0.0000000   0.0000000   0.3611157), wk =   0.0054870
        k(    4) = (   0.0000000   0.0000000   0.5416735), wk =   0.0054870
        k(    5) = (   0.0000000   0.0000000   0.7222313), wk =   0.0054870
        k(    6) = (   0.0000000   0.1111111   0.0000000), wk =   0.0109739
        k(    7) = (   0.0000000   0.1111111   0.1805578), wk =   0.0219479
        k(    8) = (   0.0000000   0.1111111   0.3611157), wk =   0.0219479
        k(    9) = (   0.0000000   0.1111111   0.5416735), wk =   0.0219479
        k(   10) = (   0.0000000   0.1111111   0.7222313), wk =   0.0219479
        k(   11) = (   0.0000000   0.2222222   0.0000000), wk =   0.0109739
        k(   12) = (   0.0000000   0.2222222   0.1805578), wk =   0.0219479
        k(   13) = (   0.0000000   0.2222222   0.3611157), wk =   0.0219479
        k(   14) = (   0.0000000   0.2222222   0.5416735), wk =   0.0219479
        k(   15) = (   0.0000000   0.2222222   0.7222313), wk =   0.0219479
        k(   16) = (   0.0000000   0.3333333   0.0000000), wk =   0.0109739
        k(   17) = (   0.0000000   0.3333333   0.1805578), wk =   0.0219479
        k(   18) = (   0.0000000   0.3333333   0.3611157), wk =   0.0219479
        k(   19) = (   0.0000000   0.3333333   0.5416735), wk =   0.0219479
        k(   20) = (   0.0000000   0.3333333   0.7222313), wk =   0.0219479
        k(   21) = (   0.0000000   0.4444444   0.0000000), wk =   0.0109739
        k(   22) = (   0.0000000   0.4444444   0.1805578), wk =   0.0219479
        k(   23) = (   0.0000000   0.4444444   0.3611157), wk =   0.0219479
        k(   24) = (   0.0000000   0.4444444   0.5416735), wk =   0.0219479
        k(   25) = (   0.0000000   0.4444444   0.7222313), wk =   0.0219479
        k(   26) = (   0.1111111   0.1111111   0.0000000), wk =   0.0109739
        k(   27) = (   0.1111111   0.1111111   0.1805578), wk =   0.0219479
        k(   28) = (   0.1111111   0.1111111   0.3611157), wk =   0.0219479
        k(   29) = (   0.1111111   0.1111111   0.5416735), wk =   0.0219479
        k(   30) = (   0.1111111   0.1111111   0.7222313), wk =   0.0219479
        k(   31) = (   0.1111111   0.2222222   0.0000000), wk =   0.0219479
        k(   32) = (   0.1111111   0.2222222   0.1805578), wk =   0.0438957
        k(   33) = (   0.1111111   0.2222222   0.3611157), wk =   0.0438957
        k(   34) = (   0.1111111   0.2222222   0.5416735), wk =   0.0438957
        k(   35) = (   0.1111111   0.2222222   0.7222313), wk =   0.0438957
        k(   36) = (   0.1111111   0.3333333   0.0000000), wk =   0.0219479
        k(   37) = (   0.1111111   0.3333333   0.1805578), wk =   0.0438957
        k(   38) = (   0.1111111   0.3333333   0.3611157), wk =   0.0438957
[...]
        k(   55) = (   0.2222222   0.3333333   0.7222313), wk =   0.0438957
        k(   56) = (   0.2222222   0.4444444   0.0000000), wk =   0.0219479
        k(   57) = (   0.2222222   0.4444444   0.1805578), wk =   0.0438957
        k(   58) = (   0.2222222   0.4444444   0.3611157), wk =   0.0438957
        k(   59) = (   0.2222222   0.4444444   0.5416735), wk =   0.0438957
        k(   60) = (   0.2222222   0.4444444   0.7222313), wk =   0.0438957
        k(   61) = (   0.3333333   0.3333333   0.0000000), wk =   0.0109739
        k(   62) = (   0.3333333   0.3333333   0.1805578), wk =   0.0219479
        k(   63) = (   0.3333333   0.3333333   0.3611157), wk =   0.0219479
        k(   64) = (   0.3333333   0.3333333   0.5416735), wk =   0.0219479
        k(   65) = (   0.3333333   0.3333333   0.7222313), wk =   0.0219479
        k(   66) = (   0.3333333   0.4444444   0.0000000), wk =   0.0219479
        k(   67) = (   0.3333333   0.4444444   0.1805578), wk =   0.0438957
        k(   68) = (   0.3333333   0.4444444   0.3611157), wk =   0.0438957
        k(   69) = (   0.3333333   0.4444444   0.5416735), wk =   0.0438957
        k(   70) = (   0.3333333   0.4444444   0.7222313), wk =   0.0438957
        k(   71) = (   0.4444444   0.4444444   0.0000000), wk =   0.0109739
        k(   72) = (   0.4444444   0.4444444   0.1805578), wk =   0.0219479
        k(   73) = (   0.4444444   0.4444444   0.3611157), wk =   0.0219479
        k(   74) = (   0.4444444   0.4444444   0.5416735), wk =   0.0219479
        k(   75) = (   0.4444444   0.4444444   0.7222313), wk =   0.0219479

                       cryst. coord.
        k(    1) = (   0.0000000   0.0000000   0.0000000), wk =   0.0027435
        k(    2) = (   0.0000000   0.0000000   0.1111111), wk =   0.0054870
        k(    3) = (   0.0000000   0.0000000   0.2222222), wk =   0.0054870
        k(    4) = (   0.0000000   0.0000000   0.3333333), wk =   0.0054870
        k(    5) = (   0.0000000   0.0000000   0.4444444), wk =   0.0054870
        k(    6) = (   0.0000000   0.1111111   0.0000000), wk =   0.0109739
        k(    7) = (   0.0000000   0.1111111   0.1111111), wk =   0.0219479
        k(    8) = (   0.0000000   0.1111111   0.2222222), wk =   0.0219479
        k(    9) = (   0.0000000   0.1111111   0.3333333), wk =   0.0219479
        k(   10) = (   0.0000000   0.1111111   0.4444444), wk =   0.0219479
        k(   11) = (   0.0000000   0.2222222   0.0000000), wk =   0.0109739
        k(   12) = (   0.0000000   0.2222222   0.1111111), wk =   0.0219479
        k(   13) = (   0.0000000   0.2222222   0.2222222), wk =   0.0219479
        k(   14) = (   0.0000000   0.2222222   0.3333333), wk =   0.0219479
        k(   15) = (   0.0000000   0.2222222   0.4444444), wk =   0.0219479
        k(   16) = (   0.0000000   0.3333333   0.0000000), wk =   0.0109739
        k(   17) = (   0.0000000   0.3333333   0.1111111), wk =   0.0219479
        k(   18) = (   0.0000000   0.3333333   0.2222222), wk =   0.0219479
        k(   19) = (   0.0000000   0.3333333   0.3333333), wk =   0.0219479
        k(   20) = (   0.0000000   0.3333333   0.4444444), wk =   0.0219479
        k(   21) = (   0.0000000   0.4444444   0.0000000), wk =   0.0109739
        k(   22) = (   0.0000000   0.4444444   0.1111111), wk =   0.0219479
        k(   23) = (   0.0000000   0.4444444   0.2222222), wk =   0.0219479
        k(   24) = (   0.0000000   0.4444444   0.3333333), wk =   0.0219479
        k(   25) = (   0.0000000   0.4444444   0.4444444), wk =   0.0219479
        k(   26) = (   0.1111111   0.1111111   0.0000000), wk =   0.0109739
        k(   27) = (   0.1111111   0.1111111   0.1111111), wk =   0.0219479
        k(   28) = (   0.1111111   0.1111111   0.2222222), wk =   0.0219479
        k(   29) = (   0.1111111   0.1111111   0.3333333), wk =   0.0219479
        k(   30) = (   0.1111111   0.1111111   0.4444444), wk =   0.0219479
        k(   31) = (   0.1111111   0.2222222   0.0000000), wk =   0.0219479
        k(   32) = (   0.1111111   0.2222222   0.1111111), wk =   0.0438957
        k(   33) = (   0.1111111   0.2222222   0.2222222), wk =   0.0438957
        k(   34) = (   0.1111111   0.2222222   0.3333333), wk =   0.0438957
        k(   35) = (   0.1111111   0.2222222   0.4444444), wk =   0.0438957
        k(   36) = (   0.1111111   0.3333333   0.0000000), wk =   0.0219479
        k(   37) = (   0.1111111   0.3333333   0.1111111), wk =   0.0438957
        k(   38) = (   0.1111111   0.3333333   0.2222222), wk =   0.0438957
        k(   39) = (   0.1111111   0.3333333   0.3333333), wk =   0.0438957
        k(   40) = (   0.1111111   0.3333333   0.4444444), wk =   0.0438957
        k(   41) = (   0.1111111   0.4444444   0.0000000), wk =   0.0219479
        k(   42) = (   0.1111111   0.4444444   0.1111111), wk =   0.0438957
        k(   43) = (   0.1111111   0.4444444   0.2222222), wk =   0.0438957
        k(   44) = (   0.1111111   0.4444444   0.3333333), wk =   0.0438957
        k(   45) = (   0.1111111   0.4444444   0.4444444), wk =   0.0438957
        k(   46) = (   0.2222222   0.2222222   0.0000000), wk =   0.0109739
        k(   47) = (   0.2222222   0.2222222   0.1111111), wk =   0.0219479
        k(   48) = (   0.2222222   0.2222222   0.2222222), wk =   0.0219479
        k(   49) = (   0.2222222   0.2222222   0.3333333), wk =   0.0219479
        k(   50) = (   0.2222222   0.2222222   0.4444444), wk =   0.0219479
        k(   51) = (   0.2222222   0.3333333   0.0000000), wk =   0.0219479
        k(   52) = (   0.2222222   0.3333333   0.1111111), wk =   0.0438957
        k(   53) = (   0.2222222   0.3333333   0.2222222), wk =   0.0438957
        k(   54) = (   0.2222222   0.3333333   0.3333333), wk =   0.0438957
        k(   55) = (   0.2222222   0.3333333   0.4444444), wk =   0.0438957
        k(   56) = (   0.2222222   0.4444444   0.0000000), wk =   0.0219479
        k(   57) = (   0.2222222   0.4444444   0.1111111), wk =   0.0438957
        k(   58) = (   0.2222222   0.4444444   0.2222222), wk =   0.0438957
        k(   59) = (   0.2222222   0.4444444   0.3333333), wk =   0.0438957
        k(   60) = (   0.2222222   0.4444444   0.4444444), wk =   0.0438957
        k(   61) = (   0.3333333   0.3333333   0.0000000), wk =   0.0109739
        k(   62) = (   0.3333333   0.3333333   0.1111111), wk =   0.0219479
        k(   63) = (   0.3333333   0.3333333   0.2222222), wk =   0.0219479
        k(   64) = (   0.3333333   0.3333333   0.3333333), wk =   0.0219479
        k(   65) = (   0.3333333   0.3333333   0.4444444), wk =   0.0219479
        k(   66) = (   0.3333333   0.4444444   0.0000000), wk =   0.0219479
        k(   67) = (   0.3333333   0.4444444   0.1111111), wk =   0.0438957
        k(   68) = (   0.3333333   0.4444444   0.2222222), wk =   0.0438957
        k(   69) = (   0.3333333   0.4444444   0.3333333), wk =   0.0438957
        k(   70) = (   0.3333333   0.4444444   0.4444444), wk =   0.0438957
        k(   71) = (   0.4444444   0.4444444   0.0000000), wk =   0.0109739
        k(   72) = (   0.4444444   0.4444444   0.1111111), wk =   0.0219479
        k(   73) = (   0.4444444   0.4444444   0.2222222), wk =   0.0219479
        k(   74) = (   0.4444444   0.4444444   0.3333333), wk =   0.0219479
        k(   75) = (   0.4444444   0.4444444   0.4444444), wk =   0.0219479

     Initial potential from superposition of free atoms

     starting charge   55.99693, renormalised to   56.00000
     Starting wfcs are   34 randomized atomic wfcs
     Checking if some PAW data can be deallocated...

     Self-consistent Calculation

     iteration #  1     ecut=    70.00 Ry     beta= 0.70
     Davidson diagonalization with overlap
     ethr =  1.00E-02,  avg # of iterations =  1.1

     Threshold (ethr) on eigenvalues was too large:
     Diagonalizing with lowered threshold

     Davidson diagonalization with overlap
     ethr =  2.36E-04,  avg # of iterations =  2.4

     total energy              =   -2399.94202830 Ry
     estimated scf accuracy    <       0.11835942 Ry

[...]

     total energy              =   -2399.99046913 Ry
     estimated scf accuracy    <       0.00000197 Ry

     iteration #  8     ecut=    70.00 Ry     beta= 0.70
     Davidson diagonalization with overlap
     ethr =  3.52E-09,  avg # of iterations =  5.3

     End of self-consistent calculation

          k = 0.0000 0.0000 0.0000 ( 18231 PWs)   bands (ev):

   -18.3191 -18.3162 -18.3087 -18.3083 -18.3053 -18.3053 -18.3050 -18.3050
   -18.3046 -18.3046  -9.3440  -8.8365  -8.8365  -8.7178  -4.1157  -2.2594
    -0.1084  -0.1084   0.4263   0.7347   1.2464   1.3476   1.5941   1.5941
     2.0023   2.0023   2.3755   2.8709

     occupation numbers
     1.0000   1.0000   1.0000   1.0000   1.0000   1.0000   1.0000   1.0000
     1.0000   1.0000   1.0000   1.0000   1.0000   1.0000   1.0000   1.0000
     1.0000   1.0000   1.0000   1.0000   1.0000   1.0000   1.0000   1.0000
     1.0000   1.0000   1.0000   1.0000

[...]

          k = 0.4444 0.4444 0.7222 ( 18275 PWs)   bands (ev):

   -18.3158 -18.3158 -18.3098 -18.3097 -18.3084 -18.3084 -18.3056 -18.3056
   -18.3013 -18.3013  -8.8794  -8.8754  -8.7290  -8.7280  -3.7097  -3.6996
    -0.2163  -0.2069   0.0434   0.2811   0.5328   0.7904   1.7449   1.7852
     1.8210   1.8570   2.0521   2.1198

     occupation numbers
     1.0000   1.0000   1.0000   1.0000   1.0000   1.0000   1.0000   1.0000
     1.0000   1.0000   1.0000   1.0000   1.0000   1.0000   1.0000   1.0000
     1.0000   1.0000   1.0000   1.0000   1.0000   1.0000   1.0000   1.0000
     1.0000   1.0000   1.0000   1.0000

     highest occupied level (ev):     3.0991

!    total energy              =   -2399.99047017 Ry

     total all-electron energy =    -81641.235818 Ry
     estimated scf accuracy    <       0.00000047 Ry

     The total energy is the sum of the following terms:
     one-electron contribution =    -203.79296456 Ry
     hartree contribution      =     130.15778724 Ry
     xc contribution           =    -159.02123048 Ry
     ewald contribution        =    -219.54274839 Ry
     one-center paw contrib.   =   -1947.79131398 Ry
      -> PAW hartree energy AE =     108.41624098 Ry
      -> PAW hartree energy PS =    -107.65008276 Ry
      -> PAW xc energy AE      =    -328.96376836 Ry
      -> PAW xc energy PS      =      47.26246576 Ry
      -> total E_H with PAW    =     130.92394545 Ry
      -> total E_XC with PAW   =    -440.72253308 Ry

     convergence has been achieved in   8 iterations

     Forces acting on atoms (cartesian axes, Ry/au):

     atom    1 type  1   force =     0.00000000    0.00000000    0.00000000
     atom    2 type  1   force =     0.00000000    0.00000000    0.00000000
     atom    3 type  2   force =    -0.00021052   -0.00021052   -0.00000000
     atom    4 type  2   force =     0.00021052    0.00021052   -0.00000000
     atom    5 type  2   force =    -0.00021052    0.00021052    0.00000000
     atom    6 type  2   force =     0.00021052   -0.00021052    0.00000000
     The non-local contrib.  to forces
     atom    1 type  1   force =     0.00000000    0.00000000    0.00000000
     atom    2 type  1   force =     0.00000000    0.00000000    0.00000000
     atom    3 type  2   force =     0.01430104    0.01430104    0.00000000
     atom    4 type  2   force =    -0.01430104   -0.01430104    0.00000000
     atom    5 type  2   force =     0.01430104   -0.01430104    0.00000000
     atom    6 type  2   force =    -0.01430104    0.01430104    0.00000000
     The ionic contribution  to forces
     atom    1 type  1   force =    -0.00000000   -0.00000000    0.00000000
     atom    2 type  1   force =    -0.00000000   -0.00000000   -0.00000000
     atom    3 type  2   force =    -0.90990984   -0.90990984   -0.00000000
     atom    4 type  2   force =     0.90990984    0.90990984   -0.00000000
     atom    5 type  2   force =    -0.90990984    0.90990984   -0.00000000
     atom    6 type  2   force =     0.90990984   -0.90990984    0.00000000
     The local contribution  to forces
     atom    1 type  1   force =     0.00000000    0.00000000    0.00000000
     atom    2 type  1   force =     0.00000000    0.00000000    0.00000000
     atom    3 type  2   force =     0.89714449    0.89714449    0.00000000
     atom    4 type  2   force =    -0.89714449   -0.89714449    0.00000000
     atom    5 type  2   force =     0.89714449   -0.89714449    0.00000000
     atom    6 type  2   force =    -0.89714449    0.89714449    0.00000000
     The core correction contribution to forces
     atom    1 type  1   force =     0.00000000    0.00000000    0.00000000
     atom    2 type  1   force =     0.00000000    0.00000000    0.00000000
     atom    3 type  2   force =    -0.00181383   -0.00181383    0.00000000
     atom    4 type  2   force =     0.00181383    0.00181383    0.00000000
     atom    5 type  2   force =    -0.00181383    0.00181383    0.00000000
     atom    6 type  2   force =     0.00181383   -0.00181383    0.00000000
     The Hubbard contrib.    to forces
     atom    1 type  1   force =     0.00000000    0.00000000    0.00000000
     atom    2 type  1   force =     0.00000000    0.00000000    0.00000000
     atom    3 type  2   force =     0.00000000    0.00000000    0.00000000
     atom    4 type  2   force =     0.00000000    0.00000000    0.00000000
     atom    5 type  2   force =     0.00000000    0.00000000    0.00000000
     atom    6 type  2   force =     0.00000000    0.00000000    0.00000000
     The SCF correction term to forces
     atom    1 type  1   force =     0.00000000   -0.00000000    0.00000000
     atom    2 type  1   force =     0.00000000    0.00000000   -0.00000000
     atom    3 type  2   force =     0.00006760    0.00006760    0.00000000
     atom    4 type  2   force =    -0.00006760   -0.00006760   -0.00000000
     atom    5 type  2   force =     0.00006760   -0.00006760    0.00000000
     atom    6 type  2   force =    -0.00006760    0.00006760   -0.00000000

     Total force =     0.000595     Total SCF correction =     0.000191
     SCF correction compared to forces is large: reduce conv_thr to get better values

     Computing stress (Cartesian axis) and pressure

          total   stress  (Ry/bohr**3)                   (kbar)     P=       -1.99
  -0.00001484   0.00000000   0.00000000           -2.18        0.00        0.00
   0.00000000  -0.00001484   0.00000000            0.00       -2.18        0.00
   0.00000000   0.00000000  -0.00001093            0.00        0.00       -1.61

     kinetic stress (kbar)   7315.34      0.00      0.00
                                0.00   7315.34      0.00
                                0.00      0.00   7289.20

     local   stress (kbar)  -1446.28     -0.00     -0.00
                               -0.00  -1446.28      0.00
                               -0.00      0.00  -5849.25

     nonloc. stress (kbar)    116.12      0.00      0.00
                                0.00    116.12      0.00
                                0.00      0.00    115.43

     hartree stress (kbar)   2829.28      0.00     -0.00
                                0.00   2829.28     -0.00
                               -0.00     -0.00   4718.29

     exc-cor stress (kbar)   6161.24      0.00     -0.00
                                0.00   6161.24     -0.00
                               -0.00     -0.00   6162.29

     corecor stress (kbar)  -8297.12      0.00      0.00
                                0.00  -8297.12      0.00
                                0.00      0.00  -8296.00

     ewald   stress (kbar)  -6680.77     -0.00     -0.00
                               -0.00  -6680.77     -0.00
                               -0.00     -0.00  -4141.56

     hubbard stress (kbar)      0.00      0.00      0.00
                                0.00      0.00      0.00
                                0.00      0.00      0.00

     DFT-D   stress (kbar)      0.00      0.00      0.00
                                0.00      0.00      0.00
                                0.00      0.00      0.00

     XDM     stress (kbar)      0.00      0.00      0.00
                                0.00      0.00      0.00
                                0.00      0.00      0.00

     dft-nl  stress (kbar)      0.00      0.00      0.00
                                0.00      0.00      0.00
                                0.00      0.00      0.00

     TS-vdW  stress (kbar)      0.00      0.00      0.00
                                0.00      0.00      0.00
                                0.00      0.00      0.00

     Writing output data file ./out/SnI2tetr.save/

     General routines

     Parallel routines

     PAW routines

   This run was terminated on:  12:28:22  15Jan2021

   JOB DONE.