     Program PWSCF v.6.7MaX starts on 15Jan2021 at 14:46:55

     R & G space division:  proc/nbgrp/npool/nimage =      64
     Waiting for input...
     Reading input from standard input

     Current dimensions of program PWSCF are:
     Max number of different atomic species (ntypx) = 10
     Max number of k-points (npk) =  40000
     Max angular momentum in pseudopotentials (lmaxx) =  3
     file Sn.pbe-dn-kjpaw_psl.1.0.0.UPF: wavefunction(s)  5S 5P 4D renormalized
     file I.pbe-n-kjpaw_psl.1.0.0.UPF: wavefunction(s)  5S renormalized
     file Cs.pbe-spn-kjpaw_psl.1.0.0.UPF: wavefunction(s)  5S 6S renormalized

     Subspace diagonalization in iterative solution of the eigenvalue problem:
     a serial algorithm will be used

     Message from routine setup:
     using ibrav=0 with symmetry is DISCOURAGED, use correct ibrav instead

     Title:
     CsSnI3

     bravais-lattice index     =            0
     lattice parameter (alat)  =       9.1317  a.u.
     unit-cell volume          =    6370.5385 (a.u.)^3
     number of atoms/cell      =           20
     number of atomic types    =            3
     number of electrons       =       176.00
     number of Kohn-Sham states=           89
     kinetic-energy cutoff     =      70.0000  Ry
     charge density cutoff     =     280.0000  Ry
     scf convergence threshold =      1.0E-06
     mixing beta               =       0.5000
     number of iterations used =            8  plain     mixing
     energy convergence thresh.=      1.0E-04
     force convergence thresh. =      1.0E-04
     press convergence thresh. =      5.0E-01
     Exchange-correlation= SLA  PW   PBX  PBC
                           (   1   4   3   4   0   0   0)
     nstep                     =           50

     celldm(1)=   9.131705  celldm(2)=   0.000000  celldm(3)=   0.000000
     celldm(4)=   0.000000  celldm(5)=   0.000000  celldm(6)=   0.000000

     crystal axes: (cart. coord. in units of alat)
               a(1) = (   1.000000   0.000000   0.000000 )
               a(2) = (   0.000000   2.227728   0.000000 )
               a(3) = (   0.000000   0.000000   3.755420 )

     reciprocal axes: (cart. coord. in units 2 pi/alat)
               b(1) = (  1.000000  0.000000  0.000000 )
               b(2) = (  0.000000  0.448888  0.000000 )
               b(3) = (  0.000000  0.000000  0.266282 )

     PseudoPot. # 1 for Sn read from file:
     ../../pseudo/Sn.pbe-dn-kjpaw_psl.1.0.0.UPF
     MD5 check sum: 67f11dec737d427557dc41ea34975807
     Pseudo is Projector augmented-wave + core cor, Zval = 14.0
     Generated using &quot;atomic&quot; code by A. Dal Corso  v.6.3
     Shape of augmentation charge: PSQ
     Using radial grid of 1243 points,  6 beta functions with:
                l(1) =   0
                l(2) =   0
                l(3) =   1
                l(4) =   1
                l(5) =   2
                l(6) =   2
     Q(r) pseudized with 0 coefficients

     PseudoPot. # 2 for I  read from file:
     ../../pseudo/I.pbe-n-kjpaw_psl.1.0.0.UPF
     MD5 check sum: cd3d296c3308a581e1559a0c8a554cb5
     Pseudo is Projector augmented-wave + core cor, Zval =  7.0
     Generated using &quot;atomic&quot; code by A. Dal Corso  v.6.3
     Shape of augmentation charge: PSQ
     Using radial grid of 1247 points,  6 beta functions with:
                l(1) =   0
                l(2) =   0
                l(3) =   1
                l(4) =   1
                l(5) =   2
                l(6) =   2
     Q(r) pseudized with 0 coefficients

     PseudoPot. # 3 for Cs read from file:
     ../../pseudo/Cs.pbe-spn-kjpaw_psl.1.0.0.UPF
     MD5 check sum: b82c75cc2e1f4ff73b6412cffeb9c584
     Pseudo is Projector augmented-wave + core cor, Zval =  9.0
     Generated using &quot;atomic&quot; code by A. Dal Corso  v.6.4.1
     Shape of augmentation charge: PSQ
     Using radial grid of 1251 points,  9 beta functions with:
                l(1) =   0
                l(2) =   0
                l(3) =   0
                l(4) =   1
                l(5) =   1
                l(6) =   2
                l(7) =   2
                l(8) =   3
                l(9) =   3
     Q(r) pseudized with 0 coefficients

     atomic species   valence    mass     pseudopotential
        Sn            14.00   118.70000     Sn( 1.00)
        I              7.00   126.90000     I ( 1.00)
        Cs             9.00   132.90000     Cs( 1.00)

      8 Sym. Ops., with inversion, found ( 6 have fractional translation)

                                    s                        frac. trans.

      isym =  1     identity

 cryst.   s( 1) = (     1          0          0      )
                  (     0          1          0      )
                  (     0          0          1      )

 cart.    s( 1) = (  1.0000000  0.0000000  0.0000000 )
                  (  0.0000000  1.0000000  0.0000000 )
                  (  0.0000000  0.0000000  1.0000000 )

      isym =  2     180 deg rotation - cart. axis [0,0,1]

 cryst.   s( 2) = (    -1          0          0      )    f =(  0.0000000 )
                  (     0         -1          0      )       (  0.5000000 )
                  (     0          0          1      )       (  0.5000000 )

 cart.    s( 2) = ( -1.0000000  0.0000000  0.0000000 )    f =(  0.0000000 )
                  (  0.0000000 -1.0000000  0.0000000 )       (  1.1138638 )
                  (  0.0000000  0.0000000  1.0000000 )       (  1.8777098 )

[...]

      isym =  4     180 deg rotation - cart. axis [1,0,0]

[...]

      isym =  5     inversion

 cryst.   s( 5) = (    -1          0          0      )
                  (     0         -1          0      )
                  (     0          0         -1      )

 cart.    s( 5) = ( -1.0000000  0.0000000  0.0000000 )
                  (  0.0000000 -1.0000000  0.0000000 )
                  (  0.0000000  0.0000000 -1.0000000 )

      isym =  6     inv. 180 deg rotation - cart. axis [0,0,1]

[...]

      isym =  8     inv. 180 deg rotation - cart. axis [1,0,0]

 cryst.   s( 8) = (    -1          0          0      )    f =(  0.5000000 )
                  (     0          1          0      )       (  0.0000000 )
                  (     0          0          1      )       (  0.0000000 )

 cart.    s( 8) = ( -1.0000000  0.0000000  0.0000000 )    f =(  0.5000000 )
                  (  0.0000000  1.0000000  0.0000000 )       (  0.0000000 )
                  (  0.0000000  0.0000000  1.0000000 )       (  0.0000000 )

   Cartesian axes

     site n.     atom                  positions (alat units)
         1           Cs  tau(   1) = (   0.2500000   0.1859640   2.5168147  )
         2           Cs  tau(   2) = (   0.7500000   2.0417636   1.2386050  )
         3           Cs  tau(   3) = (   0.2500000   1.2998278   3.1163149  )
         4           Cs  tau(   4) = (   0.7500000   0.9278998   0.6391048  )
         5           Sn  tau(   5) = (   0.2500000   0.7615710   1.6485466  )
         6           Sn  tau(   6) = (   0.7500000   1.4661567   2.1068731  )
         7           Sn  tau(   7) = (   0.2500000   1.8754348   0.2291632  )
         8           Sn  tau(   8) = (   0.7500000   0.3522928   3.5262565  )
         9           I   tau(   9) = (   0.7500000   0.0581437   0.4202578  )
        10           I   tau(  10) = (   0.2500000   2.1695839   3.3351619  )
        11           I   tau(  11) = (   0.7500000   1.1720075   1.4574521  )
        12           I   tau(  12) = (   0.2500000   1.0557201   2.2979676  )
        13           I   tau(  13) = (   0.7500000   0.6531118   2.9738192  )
        14           I   tau(  14) = (   0.2500000   1.5746158   0.7816005  )
        15           I   tau(  15) = (   0.7500000   1.7669756   2.6593103  )
        16           I   tau(  16) = (   0.2500000   0.4607520   1.0961094  )
        17           I   tau(  17) = (   0.7500000   0.3753632   1.8734812  )
        18           I   tau(  18) = (   0.2500000   1.8523644   1.8819384  )
        19           I   tau(  19) = (   0.7500000   1.4892270   0.0042286  )
        20           I   tau(  20) = (   0.2500000   0.7385006   3.7511911  )

   Crystallographic axes

     site n.     atom                  positions (cryst. coord.)
         1           Cs  tau(   1) = (  0.2500000  0.0834770  0.6701820  )
         2           Cs  tau(   2) = (  0.7500000  0.9165230  0.3298180  )
         3           Cs  tau(   3) = (  0.2500000  0.5834770  0.8298180  )
         4           Cs  tau(   4) = (  0.7500000  0.4165230  0.1701820  )
         5           Sn  tau(   5) = (  0.2500000  0.3418600  0.4389780  )
         6           Sn  tau(   6) = (  0.7500000  0.6581400  0.5610220  )
         7           Sn  tau(   7) = (  0.2500000  0.8418600  0.0610220  )
         8           Sn  tau(   8) = (  0.7500000  0.1581400  0.9389780  )
         9           I   tau(   9) = (  0.7500000  0.0261000  0.1119070  )
        10           I   tau(  10) = (  0.2500000  0.9739000  0.8880930  )
        11           I   tau(  11) = (  0.7500000  0.5261000  0.3880930  )
        12           I   tau(  12) = (  0.2500000  0.4739000  0.6119070  )
        13           I   tau(  13) = (  0.7500000  0.2931740  0.7918740  )
        14           I   tau(  14) = (  0.2500000  0.7068260  0.2081260  )
        15           I   tau(  15) = (  0.7500000  0.7931740  0.7081260  )
        16           I   tau(  16) = (  0.2500000  0.2068260  0.2918740  )
        17           I   tau(  17) = (  0.7500000  0.1684960  0.4988740  )
        18           I   tau(  18) = (  0.2500000  0.8315040  0.5011260  )
        19           I   tau(  19) = (  0.7500000  0.6684960  0.0011260  )
        20           I   tau(  20) = (  0.2500000  0.3315040  0.9988740  )

     number of k points=    27
                       cart. coord. in units 2pi/alat
        k(    1) = (   0.0000000   0.0000000   0.0000000), wk =   0.0160000
        k(    2) = (   0.0000000   0.0000000   0.0532564), wk =   0.0320000
        k(    3) = (   0.0000000   0.0000000   0.1065127), wk =   0.0320000
        k(    4) = (   0.0000000   0.0897776   0.0000000), wk =   0.0320000
        k(    5) = (   0.0000000   0.0897776   0.0532564), wk =   0.0640000
        k(    6) = (   0.0000000   0.0897776   0.1065127), wk =   0.0640000
        k(    7) = (   0.0000000   0.1795552   0.0000000), wk =   0.0320000
        k(    8) = (   0.0000000   0.1795552   0.0532564), wk =   0.0640000
        k(    9) = (   0.0000000   0.1795552   0.1065127), wk =   0.0640000
        k(   10) = (   0.2000000   0.0000000   0.0000000), wk =   0.0320000
        k(   11) = (   0.2000000   0.0000000   0.0532564), wk =   0.0640000
        k(   12) = (   0.2000000   0.0000000   0.1065127), wk =   0.0640000
        k(   13) = (   0.2000000   0.0897776   0.0000000), wk =   0.0640000
        k(   14) = (   0.2000000   0.0897776   0.0532564), wk =   0.1280000
        k(   15) = (   0.2000000   0.0897776   0.1065127), wk =   0.1280000
        k(   16) = (   0.2000000   0.1795552   0.0000000), wk =   0.0640000
        k(   17) = (   0.2000000   0.1795552   0.0532564), wk =   0.1280000
        k(   18) = (   0.2000000   0.1795552   0.1065127), wk =   0.1280000
[...]
      -> total E_XC with PAW   =    -828.94267228 Ry

     convergence has been achieved in  11 iterations

     Forces acting on atoms (cartesian axes, Ry/au):

     atom    1 type  3   force =     0.00000000   -0.00016194    0.00012119
     atom    2 type  3   force =     0.00000000    0.00016194   -0.00012119
     atom    3 type  3   force =     0.00000000   -0.00016194   -0.00012119
     atom    4 type  3   force =     0.00000000    0.00016194    0.00012119
     atom    5 type  1   force =    -0.00000000    0.00005079   -0.00028309
     atom    6 type  1   force =     0.00000000   -0.00005079    0.00028309
     atom    7 type  1   force =    -0.00000000    0.00005079    0.00028309
     atom    8 type  1   force =     0.00000000   -0.00005079   -0.00028309
     atom    9 type  2   force =     0.00000000   -0.00015655    0.00014905
     atom   10 type  2   force =     0.00000000    0.00015655   -0.00014905
     atom   11 type  2   force =     0.00000000   -0.00015655   -0.00014905
     atom   12 type  2   force =     0.00000000    0.00015655    0.00014905
     atom   13 type  2   force =     0.00000000   -0.00006732    0.00010878
     atom   14 type  2   force =     0.00000000    0.00006732   -0.00010878
     atom   15 type  2   force =     0.00000000   -0.00006732   -0.00010878
     atom   16 type  2   force =     0.00000000    0.00006732    0.00010878
     atom   17 type  2   force =     0.00000000    0.00013728    0.00000836
     atom   18 type  2   force =     0.00000000   -0.00013728   -0.00000836
     atom   19 type  2   force =     0.00000000    0.00013728   -0.00000836
     atom   20 type  2   force =     0.00000000   -0.00013728    0.00000836
     The non-local contrib.  to forces
     atom    1 type  3   force =     0.00000000    0.00310411   -0.00289122
     atom    2 type  3   force =     0.00000000   -0.00310411    0.00289122
     atom    3 type  3   force =    -0.00000000    0.00310411    0.00289122
     atom    4 type  3   force =    -0.00000000   -0.00310411   -0.00289122
     atom    5 type  1   force =     0.00000000   -0.07820055   -0.11772848
     atom    6 type  1   force =     0.00000000    0.07820055    0.11772848
     atom    7 type  1   force =     0.00000000   -0.07820055    0.11772848
     atom    8 type  1   force =     0.00000000    0.07820055   -0.11772848
     atom    9 type  2   force =     0.00000000   -0.04812140   -0.04925956
     atom   10 type  2   force =     0.00000000    0.04812140    0.04925956
     atom   11 type  2   force =     0.00000000   -0.04812140    0.04925956
     atom   12 type  2   force =     0.00000000    0.04812140   -0.04925956
     atom   13 type  2   force =    -0.00000000   -0.03046113    0.05544605
     atom   14 type  2   force =     0.00000000    0.03046113   -0.05544605
     atom   15 type  2   force =     0.00000000   -0.03046113   -0.05544605
     atom   16 type  2   force =     0.00000000    0.03046113    0.05544605
     atom   17 type  2   force =    -0.00000000    0.05727458   -0.01777712
     atom   18 type  2   force =     0.00000000   -0.05727458    0.01777712
     atom   19 type  2   force =     0.00000000    0.05727458    0.01777712
     atom   20 type  2   force =     0.00000000   -0.05727458   -0.01777712
     The ionic contribution  to forces
     atom    1 type  3   force =     0.00000000    0.12651803    0.42600746
     atom    2 type  3   force =     0.00000000   -0.12651803   -0.42600746
     atom    3 type  3   force =     0.00000000    0.12651803   -0.42600746
     atom    4 type  3   force =     0.00000000   -0.12651803    0.42600746
     atom    5 type  1   force =     0.00000000   -2.50346184   -1.60795308
     atom    6 type  1   force =     0.00000000    2.50346184    1.60795308
     atom    7 type  1   force =     0.00000000   -2.50346184    1.60795308
     atom    8 type  1   force =     0.00000000    2.50346184   -1.60795308
     atom    9 type  2   force =     0.00000000    2.95207965    5.15844830
     atom   10 type  2   force =     0.00000000   -2.95207965   -5.15844830
     atom   11 type  2   force =     0.00000000    2.95207965   -5.15844830
     atom   12 type  2   force =     0.00000000   -2.95207965    5.15844830
     atom   13 type  2   force =     0.00000000    1.90076145   -3.73032475
     atom   14 type  2   force =     0.00000000   -1.90076145    3.73032475
     atom   15 type  2   force =     0.00000000    1.90076145    3.73032475
     atom   16 type  2   force =     0.00000000   -1.90076145   -3.73032475
     atom   17 type  2   force =     0.00000000   -4.07730978    2.12244707
     atom   18 type  2   force =     0.00000000    4.07730978   -2.12244707
     atom   19 type  2   force =     0.00000000   -4.07730978   -2.12244707
     atom   20 type  2   force =     0.00000000    4.07730978    2.12244707
     The local contribution  to forces
     atom    1 type  3   force =    -0.00000000   -0.12953113   -0.42324847
     atom    2 type  3   force =    -0.00000000    0.12953113    0.42324847
     atom    3 type  3   force =    -0.00000000   -0.12953113    0.42324847
     atom    4 type  3   force =    -0.00000000    0.12953113   -0.42324847
     atom    5 type  1   force =    -0.00000000    2.58157895    1.72527794
     atom    6 type  1   force =    -0.00000000   -2.58157895   -1.72527794
     atom    7 type  1   force =    -0.00000000    2.58157895   -1.72527794
     atom    8 type  1   force =    -0.00000000   -2.58157895    1.72527794
     atom    9 type  2   force =    -0.00000000   -2.91049704   -5.11580860
     atom   10 type  2   force =    -0.00000000    2.91049704    5.11580860
     atom   11 type  2   force =    -0.00000000   -2.91049704    5.11580860
     atom   12 type  2   force =    -0.00000000    2.91049704   -5.11580860
     atom   13 type  2   force =    -0.00000000   -1.87440402    3.68239223
     atom   14 type  2   force =    -0.00000000    1.87440402   -3.68239223
     atom   15 type  2   force =    -0.00000000   -1.87440402   -3.68239223
     atom   16 type  2   force =    -0.00000000    1.87440402    3.68239223
     atom   17 type  2   force =    -0.00000000    4.02800597   -2.10729014
     atom   18 type  2   force =    -0.00000000   -4.02800597    2.10729014
     atom   19 type  2   force =    -0.00000000    4.02800597    2.10729014
     atom   20 type  2   force =    -0.00000000   -4.02800597   -2.10729014
     The core correction contribution to forces
     atom    1 type  3   force =     0.00000000   -0.00025663    0.00024877
     atom    2 type  3   force =     0.00000000    0.00025663   -0.00024877
     atom    3 type  3   force =     0.00000000   -0.00025663   -0.00024877
     atom    4 type  3   force =     0.00000000    0.00025663    0.00024877
     atom    5 type  1   force =    -0.00000000    0.00011784    0.00011483
     atom    6 type  1   force =    -0.00000000   -0.00011784   -0.00011483
     atom    7 type  1   force =    -0.00000000    0.00011784   -0.00011483
     atom    8 type  1   force =    -0.00000000   -0.00011784    0.00011483
     atom    9 type  2   force =     0.00000000    0.00638582    0.00677973
     atom   10 type  2   force =     0.00000000   -0.00638582   -0.00677973
     atom   11 type  2   force =     0.00000000    0.00638582   -0.00677973
     atom   12 type  2   force =     0.00000000   -0.00638582    0.00677973
     atom   13 type  2   force =     0.00000000    0.00404064   -0.00740717
     atom   14 type  2   force =     0.00000000   -0.00404064    0.00740717
     atom   15 type  2   force =     0.00000000    0.00404064    0.00740717
     atom   16 type  2   force =     0.00000000   -0.00404064   -0.00740717
     atom   17 type  2   force =     0.00000000   -0.00784329    0.00262918
     atom   18 type  2   force =     0.00000000    0.00784329   -0.00262918
     atom   19 type  2   force =     0.00000000   -0.00784329   -0.00262918
     atom   20 type  2   force =     0.00000000    0.00784329    0.00262918
     The Hubbard contrib.    to forces
     atom    1 type  3   force =     0.00000000    0.00000000    0.00000000
     atom    2 type  3   force =     0.00000000    0.00000000    0.00000000
     atom    3 type  3   force =     0.00000000    0.00000000    0.00000000
     atom    4 type  3   force =     0.00000000    0.00000000    0.00000000
     atom    5 type  1   force =     0.00000000    0.00000000    0.00000000
     atom    6 type  1   force =     0.00000000    0.00000000    0.00000000
     atom    7 type  1   force =     0.00000000    0.00000000    0.00000000
     atom    8 type  1   force =     0.00000000    0.00000000    0.00000000
     atom    9 type  2   force =     0.00000000    0.00000000    0.00000000
     atom   10 type  2   force =     0.00000000    0.00000000    0.00000000
     atom   11 type  2   force =     0.00000000    0.00000000    0.00000000
     atom   12 type  2   force =     0.00000000    0.00000000    0.00000000
     atom   13 type  2   force =     0.00000000    0.00000000    0.00000000
     atom   14 type  2   force =     0.00000000    0.00000000    0.00000000
     atom   15 type  2   force =     0.00000000    0.00000000    0.00000000
     atom   16 type  2   force =     0.00000000    0.00000000    0.00000000
     atom   17 type  2   force =     0.00000000    0.00000000    0.00000000
     atom   18 type  2   force =     0.00000000    0.00000000    0.00000000
     atom   19 type  2   force =     0.00000000    0.00000000    0.00000000
     atom   20 type  2   force =     0.00000000    0.00000000    0.00000000
     The SCF correction term to forces
     atom    1 type  3   force =     0.00000000    0.00000368    0.00000466
     atom    2 type  3   force =    -0.00000000   -0.00000368   -0.00000466
     atom    3 type  3   force =    -0.00000000    0.00000368   -0.00000466
     atom    4 type  3   force =     0.00000000   -0.00000368    0.00000466
     atom    5 type  1   force =    -0.00000000    0.00001639    0.00000571
     atom    6 type  1   force =     0.00000000   -0.00001639   -0.00000571
     atom    7 type  1   force =     0.00000000    0.00001639   -0.00000571
     atom    8 type  1   force =     0.00000000   -0.00001639    0.00000571
     atom    9 type  2   force =     0.00000000   -0.00000358   -0.00001082
     atom   10 type  2   force =    -0.00000000    0.00000358    0.00001082
     atom   11 type  2   force =     0.00000000   -0.00000358    0.00001082
     atom   12 type  2   force =    -0.00000000    0.00000358   -0.00001082
     atom   13 type  2   force =    -0.00000000   -0.00000426    0.00000241
     atom   14 type  2   force =     0.00000000    0.00000426   -0.00000241
     atom   15 type  2   force =     0.00000000   -0.00000426   -0.00000241
     atom   16 type  2   force =    -0.00000000    0.00000426    0.00000241
     atom   17 type  2   force =    -0.00000000    0.00000980   -0.00000064
     atom   18 type  2   force =     0.00000000   -0.00000980    0.00000064
     atom   19 type  2   force =    -0.00000000    0.00000980    0.00000064
     atom   20 type  2   force =     0.00000000   -0.00000980   -0.00000064

     Total force =     0.000907     Total SCF correction =     0.000048

     Computing stress (Cartesian axis) and pressure

          total   stress  (Ry/bohr**3)                   (kbar)     P=        0.05
  -0.00000022   0.00000000   0.00000000           -0.03        0.00        0.00
   0.00000000   0.00000130   0.00000000            0.00        0.19        0.00
   0.00000000   0.00000000  -0.00000011            0.00        0.00       -0.02

     kinetic stress (kbar)   5568.33      0.00      0.00
                                0.00   5579.67      0.00
                                0.00      0.00   5572.65

     local   stress (kbar)  -4472.04      0.00     -0.00
                                0.00  -1938.65     -0.00
                               -0.00     -0.00   -938.62

     nonloc. stress (kbar)   1150.96      0.00      0.00
                                0.00   1149.20      0.00
                                0.00      0.00   1152.02

     hartree stress (kbar)   3394.52      0.00     -0.00
                                0.00   2227.21      0.00
                               -0.00      0.00   1704.75

     exc-cor stress (kbar)   5490.00      0.00     -0.00
                                0.00   5489.67      0.00
                               -0.00      0.00   5490.11

     corecor stress (kbar)  -7269.90     -0.00      0.00
                               -0.00  -7270.16      0.00
                                0.00      0.00  -7270.13

     ewald   stress (kbar)  -3861.92     -0.00      0.00
                               -0.00  -5236.75      0.00
                                0.00      0.00  -5710.81

     hubbard stress (kbar)      0.00      0.00      0.00
                                0.00      0.00      0.00
                                0.00      0.00      0.00

     DFT-D   stress (kbar)      0.00      0.00      0.00
                                0.00      0.00      0.00
                                0.00      0.00      0.00

     XDM     stress (kbar)      0.00      0.00      0.00
                                0.00      0.00      0.00
                                0.00      0.00      0.00

     dft-nl  stress (kbar)      0.00      0.00      0.00
                                0.00      0.00      0.00
                                0.00      0.00      0.00

     TS-vdW  stress (kbar)      0.00      0.00      0.00
                                0.00      0.00      0.00
                                0.00      0.00      0.00

     Energy error            =      1.1E-05
     Gradient error          =      2.8E-04
     Cell gradient error     =      1.3E-06

     number of scf cycles    =  17
     number of bfgs steps    =  16

     enthalpy old            =   -7979.6650000990 Ry
     enthalpy new            =   -7979.6650107120 Ry

     CASE: enthalpy_new < enthalpy_old

     new trust radius        =       0.0028275044 bohr
     new conv_thr            =       0.0000000100 Ry

     new unit-cell volume =   6321.58997 a.u.^3 (   936.76299 Ang^3 )
     density =      4.48335 g/cm^3

CELL_PARAMETERS (angstrom)
   4.820059505   0.000000000   0.000000000
   0.000000000  10.749960571   0.000000000
   0.000000000   0.000000000  18.078835404

ATOMIC_POSITIONS (crystal)
Cs            0.2500000000        0.0794187229        0.6717053022
Cs            0.7500000000        0.9205812771        0.3282946978
Cs            0.2500000000        0.5794187229        0.8282946978
Cs            0.7500000000        0.4205812771        0.1717053022
Sn            0.2500000000        0.3393707796        0.4400580151
Sn            0.7500000000        0.6606292204        0.5599419849
Sn            0.2500000000        0.8393707796        0.0599419849
Sn            0.7500000000        0.1606292204        0.9400580151
I             0.7500000000        0.0252721867        0.1104266594
I             0.2500000000        0.9747278133        0.8895733406
I             0.7500000000        0.5252721867        0.3895733406
I             0.2500000000        0.4747278133        0.6104266594
I             0.7500000000        0.2920384312        0.7904570114
I             0.2500000000        0.7079615688        0.2095429886
I             0.7500000000        0.7920384312        0.7095429886
I             0.2500000000        0.2079615688        0.2904570114
I             0.7500000000        0.1656065655        0.5001003015
I             0.2500000000        0.8343934345        0.4998996985
I             0.7500000000        0.6656065655       -0.0001003015
I             0.2500000000        0.3343934345        1.0001003015

     Writing output data file ./out/CsSnI3.save/
     NEW-OLD atomic charge density approx. for the potential
     extrapolated charge  176.04231, renormalised to  176.00000

     Self-consistent Calculation

[...]

     Threshold (ethr) on eigenvalues was too large:
     Diagonalizing with lowered threshold

     Davidson diagonalization with overlap
     ethr =  3.39E-08,  avg # of iterations =  5.1

[...]

     iteration # 12     ecut=    70.00 Ry     beta= 0.50
     Davidson diagonalization with overlap
     ethr =  1.87E-11,  avg # of iterations =  1.0

     total energy              =   -7979.66501272 Ry
     estimated scf accuracy    <       0.00000003 Ry

     iteration # 13     ecut=    70.00 Ry     beta= 0.50
     Davidson diagonalization with overlap

     max_seconds     =   42500.00
     Calculation stopped in k-point loop, point #    26
     Calculation stopped in scf loop at iteration #    12

     Writing output data file ./out/CsSnI3.save/

     General routines

     Parallel routines

     PAW routines

   This run was terminated on:   2:35:22  16Jan2021

   JOB DONE.