     Program PWSCF v.6.7MaX starts on 15Jan2021 at 15:39:23

     R & G space division:  proc/nbgrp/npool/nimage =      32
     Waiting for input...
     Reading input from standard input

     Current dimensions of program PWSCF are:
     Max number of different atomic species (ntypx) = 10
     Max number of k-points (npk) =  40000
     Max angular momentum in pseudopotentials (lmaxx) =  3
     file Sn.pbe-dn-kjpaw_psl.1.0.0.UPF: wavefunction(s)  5S 5P 4D renormalized
     file I.pbe-n-kjpaw_psl.1.0.0.UPF: wavefunction(s)  5S renormalized

     Subspace diagonalization in iterative solution of the eigenvalue problem:
     a serial algorithm will be used

     Message from routine setup:
     using ibrav=0 with symmetry is DISCOURAGED, use correct ibrav instead

     Title:
     SnI4un

     bravais-lattice index     =            0
     lattice parameter (alat)  =      12.6355  a.u.
     unit-cell volume          =    2017.3401 (a.u.)^3
     number of atoms/cell      =            5
     number of atomic types    =            2
     number of electrons       =        42.00
     number of Kohn-Sham states=           23
     kinetic-energy cutoff     =      70.0000  Ry
     charge density cutoff     =     280.0000  Ry
     scf convergence threshold =      1.0E-06
     mixing beta               =       0.5000
     number of iterations used =            8  plain     mixing
     energy convergence thresh.=      1.0E-04
     force convergence thresh. =      1.0E-04
     press convergence thresh. =      5.0E-01
     Exchange-correlation= SLA  PW   PBX  PBC
                           (   1   4   3   4   0   0   0)
     nstep                     =           50

     celldm(1)=  12.635518  celldm(2)=   0.000000  celldm(3)=   0.000000
     celldm(4)=   0.000000  celldm(5)=   0.000000  celldm(6)=   0.000000

     crystal axes: (cart. coord. in units of alat)
               a(1) = (   1.000000   0.000000   0.000000 )
               a(2) = (   0.000000   1.000000   0.000000 )
               a(3) = (   0.000000   0.000000   1.000000 )

     reciprocal axes: (cart. coord. in units 2 pi/alat)
               b(1) = (  1.000000  0.000000  0.000000 )
               b(2) = (  0.000000  1.000000  0.000000 )
               b(3) = (  0.000000  0.000000  1.000000 )

     PseudoPot. # 1 for Sn read from file:
     ../../pseudo/Sn.pbe-dn-kjpaw_psl.1.0.0.UPF
     MD5 check sum: 67f11dec737d427557dc41ea34975807
     Pseudo is Projector augmented-wave + core cor, Zval = 14.0
     Generated using &quot;atomic&quot; code by A. Dal Corso  v.6.3
     Shape of augmentation charge: PSQ
     Using radial grid of 1243 points,  6 beta functions with:
                l(1) =   0
                l(2) =   0
                l(3) =   1
                l(4) =   1
                l(5) =   2
                l(6) =   2
     Q(r) pseudized with 0 coefficients

     PseudoPot. # 2 for I  read from file:
     ../../pseudo/I.pbe-n-kjpaw_psl.1.0.0.UPF
     MD5 check sum: cd3d296c3308a581e1559a0c8a554cb5
     Pseudo is Projector augmented-wave + core cor, Zval =  7.0
     Generated using &quot;atomic&quot; code by A. Dal Corso  v.6.3
     Shape of augmentation charge: PSQ
     Using radial grid of 1247 points,  6 beta functions with:
                l(1) =   0
                l(2) =   0
                l(3) =   1
                l(4) =   1
                l(5) =   2
                l(6) =   2
     Q(r) pseudized with 0 coefficients

     atomic species   valence    mass     pseudopotential
        Sn            14.00   118.70000     Sn( 1.00)
        I              7.00   126.90000     I ( 1.00)

     24 Sym. Ops. (no inversion) found

                                    s                        frac. trans.

      isym =  1     identity

 cryst.   s( 1) = (     1          0          0      )
                  (     0          1          0      )
                  (     0          0          1      )

 cart.    s( 1) = (  1.0000000  0.0000000  0.0000000 )
                  (  0.0000000  1.0000000  0.0000000 )
                  (  0.0000000  0.0000000  1.0000000 )

      isym =  2     180 deg rotation - cart. axis [0,0,1]

[...]

 cryst.   s(10) = (     0         -1          0      )
                  (     0          0         -1      )
                  (     1          0          0      )

 cart.    s(10) = (  0.0000000  0.0000000  1.0000000 )
                  ( -1.0000000  0.0000000  0.0000000 )
                  (  0.0000000 -1.0000000  0.0000000 )

[...]

      isym = 13     inv. 180 deg rotation - cart. axis [1,1,0]

[...]

   Cartesian axes

     site n.     atom                  positions (alat units)
         1           Sn  tau(   1) = (   0.0000000   0.0000000   0.0000000  )
         2           I   tau(   2) = (   0.2339030   0.7660970   0.7660970  )
         3           I   tau(   3) = (   0.7660970   0.2339030   0.7660970  )
         4           I   tau(   4) = (   0.7660970   0.7660970   0.2339030  )
         5           I   tau(   5) = (   0.2339030   0.2339030   0.2339030  )

   Crystallographic axes

     site n.     atom                  positions (cryst. coord.)
         1           Sn  tau(   1) = (  0.0000000  0.0000000  0.0000000  )
         2           I   tau(   2) = (  0.2339030  0.7660970  0.7660970  )
         3           I   tau(   3) = (  0.7660970  0.2339030  0.7660970  )
         4           I   tau(   4) = (  0.7660970  0.7660970  0.2339030  )
         5           I   tau(   5) = (  0.2339030  0.2339030  0.2339030  )

     number of k points=    10
                       cart. coord. in units 2pi/alat
        k(    1) = (   0.0000000   0.0000000   0.0000000), wk =   0.0312500
        k(    2) = (   0.0000000   0.0000000   0.2500000), wk =   0.1875000
        k(    3) = (   0.0000000   0.0000000  -0.5000000), wk =   0.0937500
        k(    4) = (   0.0000000   0.2500000   0.2500000), wk =   0.3750000
        k(    5) = (   0.0000000   0.2500000  -0.5000000), wk =   0.3750000
        k(    6) = (   0.0000000  -0.5000000  -0.5000000), wk =   0.0937500
        k(    7) = (   0.2500000   0.2500000   0.2500000), wk =   0.2500000
        k(    8) = (   0.2500000   0.2500000  -0.5000000), wk =   0.3750000
        k(    9) = (   0.2500000  -0.5000000  -0.5000000), wk =   0.1875000
        k(   10) = (  -0.5000000  -0.5000000  -0.5000000), wk =   0.0312500

                       cryst. coord.
        k(    1) = (   0.0000000   0.0000000   0.0000000), wk =   0.0312500
        k(    2) = (   0.0000000   0.0000000   0.2500000), wk =   0.1875000
        k(    3) = (   0.0000000   0.0000000  -0.5000000), wk =   0.0937500
        k(    4) = (   0.0000000   0.2500000   0.2500000), wk =   0.3750000
        k(    5) = (   0.0000000   0.2500000  -0.5000000), wk =   0.3750000
        k(    6) = (   0.0000000  -0.5000000  -0.5000000), wk =   0.0937500
        k(    7) = (   0.2500000   0.2500000   0.2500000), wk =   0.2500000
        k(    8) = (   0.2500000   0.2500000  -0.5000000), wk =   0.3750000
        k(    9) = (   0.2500000  -0.5000000  -0.5000000), wk =   0.1875000
        k(   10) = (  -0.5000000  -0.5000000  -0.5000000), wk =   0.0312500

     Initial potential from superposition of free atoms

     starting charge   41.99831, renormalised to   42.00000
     Starting wfcs are   25 randomized atomic wfcs
     Checking if some PAW data can be deallocated...

     Self-consistent Calculation

     iteration #  1     ecut=    70.00 Ry     beta= 0.50
     Davidson diagonalization with overlap
     ethr =  1.00E-02,  avg # of iterations =  2.2

     Threshold (ethr) on eigenvalues was too large:
     Diagonalizing with lowered threshold

     Davidson diagonalization with overlap
     ethr =  3.49E-04,  avg # of iterations =  3.3

     total energy              =   -1957.81014172 Ry
     estimated scf accuracy    <       0.12075232 Ry

[...]

     End of self-consistent calculation

          k = 0.0000 0.0000 0.0000 ( 20005 PWs)   bands (ev):

   -21.3150 -21.3150 -21.3150 -21.2595 -21.2595 -11.8500 -11.1185 -11.1185
   -11.1185  -6.2851  -2.4215  -2.4215  -2.4215  -1.3503  -1.3503  -0.4687
    -0.4687  -0.4687  -0.2574  -0.2574  -0.2574   1.4110   4.1427

     occupation numbers
     1.0000   1.0000   1.0000   1.0000   1.0000   1.0000   1.0000   1.0000
     1.0000   1.0000   1.0000   1.0000   1.0000   1.0000   1.0000   1.0000
     1.0000   1.0000   1.0000   1.0000   1.0000   0.0000   0.0000

[...]

          k =-0.5000-0.5000-0.5000 ( 19952 PWs)   bands (ev):

[...]

     highest occupied, lowest unoccupied level (ev):    -0.1183    1.3744

!    total energy              =   -1957.84077992 Ry

     total all-electron energy =    -69286.458341 Ry
     estimated scf accuracy    <       0.00000095 Ry

     The total energy is the sum of the following terms:
     one-electron contribution =    -155.26412833 Ry
     hartree contribution      =      94.71747853 Ry
     xc contribution           =    -110.98798690 Ry
     ewald contribution        =    -119.43299796 Ry
     one-center paw contrib.   =   -1666.87314525 Ry
      -> PAW hartree energy AE =     109.60397813 Ry
      -> PAW hartree energy PS =    -108.85916248 Ry
      -> PAW xc energy AE      =    -329.04025648 Ry
      -> PAW xc energy PS      =      47.34326262 Ry
      -> total E_H with PAW    =      95.46229418 Ry
      -> total E_XC with PAW   =    -392.68498076 Ry

     convergence has been achieved in   7 iterations

     Forces acting on atoms (cartesian axes, Ry/au):

     atom    1 type  1   force =     0.00000000    0.00000000    0.00000000
     atom    2 type  2   force =    -0.00038253    0.00038253    0.00038253
     atom    3 type  2   force =     0.00038253   -0.00038253    0.00038253
     atom    4 type  2   force =     0.00038253    0.00038253   -0.00038253
     atom    5 type  2   force =    -0.00038253   -0.00038253   -0.00038253
     The non-local contrib.  to forces
     atom    1 type  1   force =     0.00000000    0.00000000    0.00000000
     atom    2 type  2   force =    -0.09031110    0.09031110    0.09031110
     atom    3 type  2   force =     0.09031110   -0.09031110    0.09031110
     atom    4 type  2   force =     0.09031110    0.09031110   -0.09031110
     atom    5 type  2   force =    -0.09031110   -0.09031110   -0.09031110
     The ionic contribution  to forces
     atom    1 type  1   force =    -0.00000000   -0.00000000    0.00000000
     atom    2 type  2   force =     3.79412130   -3.79412130   -3.79412130
     atom    3 type  2   force =    -3.79412130    3.79412130   -3.79412130
     atom    4 type  2   force =    -3.79412130   -3.79412130    3.79412130
     atom    5 type  2   force =     3.79412130    3.79412130    3.79412130
     The local contribution  to forces
     atom    1 type  1   force =     0.00000000    0.00000000   -0.00000000
     atom    2 type  2   force =    -3.71501144    3.71501144    3.71501144
     atom    3 type  2   force =     3.71501144   -3.71501144    3.71501144
     atom    4 type  2   force =     3.71501144    3.71501144   -3.71501144
     atom    5 type  2   force =    -3.71501144   -3.71501144   -3.71501144
     The core correction contribution to forces
[...]
     enthalpy new            =   -1957.8411858632 Ry

     CASE: enthalpy_new < enthalpy_old

     new trust radius        =       0.0200450897 bohr
     new conv_thr            =       0.0000000100 Ry

     new unit-cell volume =   2153.43728 a.u.^3 (   319.10648 Ang^3 )
     density =      3.25909 g/cm^3

[...]

ATOMIC_POSITIONS (crystal)
Sn            0.0000000000        0.0000000000        0.0000000000
I             0.2287288798        0.7712711202        0.7712711202
I             0.7712711202        0.2287288798        0.7712711202
I             0.7712711202        0.7712711202        0.2287288798
I             0.2287288798        0.2287288798        0.2287288798

     Writing output data file ./out/SnI4un.save/
     NEW-OLD atomic charge density approx. for the potential
     extrapolated charge   42.27183, renormalised to   42.00000

[...]

     Total force =     0.000253     Total SCF correction =     0.000015

[...]

     Energy error            =      4.5E-06
     Gradient error          =      7.3E-05
     Cell gradient error     =      2.7E-07

     bfgs converged in  22 scf cycles and  21 bfgs steps
     (criteria: energy <  1.0E-04 Ry, force <  1.0E-04Ry/Bohr, cell <  5.0E-01kbar)

     End of BFGS Geometry Optimization

     Final enthalpy =   -1957.8411903750 Ry

     File ./out/SnI4un.bfgs deleted, as requested
Begin final coordinates
     new unit-cell volume =   2153.43728 a.u.^3 (   319.10648 Ang^3 )
     density =      3.25909 g/cm^3

CELL_PARAMETERS (angstrom)
   6.833531626   0.000000000   0.000000000
   0.000000000   6.833531626   0.000000000
   0.000000000   0.000000000   6.833531626

ATOMIC_POSITIONS (crystal)
Sn            0.0000000000        0.0000000000        0.0000000000
I             0.2287288798        0.7712711202        0.7712711202
I             0.7712711202        0.2287288798        0.7712711202
I             0.7712711202        0.7712711202        0.2287288798
I             0.2287288798        0.2287288798        0.2287288798
End final coordinates

     Writing output data file ./out/SnI4un.save/

     Final scf calculation at the relaxed structure.
     The G-vectors are recalculated for the final unit cell
     Results may differ from those at the preceding step.

     Title:
     SnI4un

     bravais-lattice index     =            0
     lattice parameter (alat)  =      12.6355  a.u.
     unit-cell volume          =    2153.4373 (a.u.)^3
     number of atoms/cell      =            5
     number of atomic types    =            2
     number of electrons       =        42.00
     number of Kohn-Sham states=           23
     kinetic-energy cutoff     =      70.0000  Ry
     charge density cutoff     =     280.0000  Ry
     scf convergence threshold =      1.0E-08
     mixing beta               =       0.5000
     number of iterations used =            8  plain     mixing
     press convergence thresh. =      5.0E-01
     Exchange-correlation= SLA  PW   PBX  PBC
                           (   1   4   3   4   0   0   0)

     celldm(1)=  12.635518  celldm(2)=   0.000000  celldm(3)=   0.000000
     celldm(4)=   0.000000  celldm(5)=   0.000000  celldm(6)=   0.000000

     crystal axes: (cart. coord. in units of alat)
               a(1) = (   1.022000   0.000000   0.000000 )
               a(2) = (   0.000000   1.022000   0.000000 )
               a(3) = (   0.000000   0.000000   1.022000 )

     reciprocal axes: (cart. coord. in units 2 pi/alat)
               b(1) = (  0.978473  0.000000  0.000000 )
               b(2) = (  0.000000  0.978473  0.000000 )
               b(3) = (  0.000000  0.000000  0.978473 )

     PseudoPot. # 1 for Sn read from file:
     ../../pseudo/Sn.pbe-dn-kjpaw_psl.1.0.0.UPF
     MD5 check sum: 67f11dec737d427557dc41ea34975807
     Pseudo is Projector augmented-wave + core cor, Zval = 14.0
     Generated using &quot;atomic&quot; code by A. Dal Corso  v.6.3
     Shape of augmentation charge: PSQ
     Using radial grid of 1243 points,  6 beta functions with:
                l(1) =   0
                l(2) =   0
                l(3) =   1
                l(4) =   1
                l(5) =   2
                l(6) =   2
     Q(r) pseudized with 0 coefficients

     PseudoPot. # 2 for I  read from file:
     ../../pseudo/I.pbe-n-kjpaw_psl.1.0.0.UPF
     MD5 check sum: cd3d296c3308a581e1559a0c8a554cb5
     Pseudo is Projector augmented-wave + core cor, Zval =  7.0
     Generated using &quot;atomic&quot; code by A. Dal Corso  v.6.3
     Shape of augmentation charge: PSQ
     Using radial grid of 1247 points,  6 beta functions with:
                l(1) =   0
                l(2) =   0
                l(3) =   1
                l(4) =   1
                l(5) =   2
                l(6) =   2
     Q(r) pseudized with 0 coefficients

     atomic species   valence    mass     pseudopotential
        Sn            14.00   118.70000     Sn( 1.00)
        I              7.00   126.90000     I ( 1.00)

     24 Sym. Ops. (no inversion) found

                                    s                        frac. trans.

      isym =  1     identity

[...]

 cryst.   s( 9) = (     0          1          0      )
                  (     0          0          1      )
                  (     1          0          0      )

 cart.    s( 9) = (  0.0000000  0.0000000  1.0000000 )
                  (  1.0000000  0.0000000  0.0000000 )
                  (  0.0000000  1.0000000  0.0000000 )

[...]

      isym = 12     120 deg rotation - cart. axis [-1,-1,1]

[...]

      isym = 24     inv.  90 deg rotation - cart. axis [1,0,0]

 cryst.   s(24) = (    -1          0          0      )
                  (     0          0         -1      )
                  (     0          1          0      )

 cart.    s(24) = ( -1.0000000  0.0000000  0.0000000 )
                  (  0.0000000  0.0000000  1.0000000 )
                  (  0.0000000 -1.0000000  0.0000000 )

   Cartesian axes

     site n.     atom                  positions (alat units)
         1           Sn  tau(   1) = (   0.0000000   0.0000000   0.0000000  )
         2           I   tau(   2) = (   0.2337610   0.7882393   0.7882393  )
         3           I   tau(   3) = (   0.7882393   0.2337610   0.7882393  )
         4           I   tau(   4) = (   0.7882393   0.7882393   0.2337610  )
         5           I   tau(   5) = (   0.2337610   0.2337610   0.2337610  )

   Crystallographic axes

     site n.     atom                  positions (cryst. coord.)
         1           Sn  tau(   1) = (  0.0000000  0.0000000  0.0000000  )
         2           I   tau(   2) = (  0.2287289  0.7712711  0.7712711  )
         3           I   tau(   3) = (  0.7712711  0.2287289  0.7712711  )
         4           I   tau(   4) = (  0.7712711  0.7712711  0.2287289  )
         5           I   tau(   5) = (  0.2287289  0.2287289  0.2287289  )

     number of k points=    10
                       cart. coord. in units 2pi/alat
        k(    1) = (   0.0000000   0.0000000   0.0000000), wk =   0.0312500
        k(    2) = (   0.0000000   0.0000000   0.2446183), wk =   0.1875000
        k(    3) = (   0.0000000   0.0000000  -0.4892366), wk =   0.0937500
        k(    4) = (   0.0000000   0.2446183   0.2446183), wk =   0.3750000
        k(    5) = (   0.0000000   0.2446183  -0.4892366), wk =   0.3750000
        k(    6) = (   0.0000000  -0.4892366  -0.4892366), wk =   0.0937500
        k(    7) = (   0.2446183   0.2446183   0.2446183), wk =   0.2500000
        k(    8) = (   0.2446183   0.2446183  -0.4892366), wk =   0.3750000
        k(    9) = (   0.2446183  -0.4892366  -0.4892366), wk =   0.1875000
        k(   10) = (  -0.4892366  -0.4892366  -0.4892366), wk =   0.0312500

                       cryst. coord.
        k(    1) = (   0.0000000   0.0000000   0.0000000), wk =   0.0312500
        k(    2) = (   0.0000000   0.0000000   0.2500000), wk =   0.1875000
        k(    3) = (   0.0000000   0.0000000  -0.5000000), wk =   0.0937500
        k(    4) = (   0.0000000   0.2500000   0.2500000), wk =   0.3750000
        k(    5) = (   0.0000000   0.2500000  -0.5000000), wk =   0.3750000
        k(    6) = (   0.0000000  -0.5000000  -0.5000000), wk =   0.0937500
        k(    7) = (   0.2500000   0.2500000   0.2500000), wk =   0.2500000
        k(    8) = (   0.2500000   0.2500000  -0.5000000), wk =   0.3750000
        k(    9) = (   0.2500000  -0.5000000  -0.5000000), wk =   0.1875000
        k(   10) = (  -0.5000000  -0.5000000  -0.5000000), wk =   0.0312500

     Initial potential from superposition of free atoms

     starting charge   41.99831, renormalised to   42.00000
     Starting wfcs are   25 randomized atomic wfcs
     Checking if some PAW data can be deallocated...

     Self-consistent Calculation

     iteration #  1     ecut=    70.00 Ry     beta= 0.50
     Davidson diagonalization with overlap
     c_bands:  1 eigenvalues not converged
     c_bands:  1 eigenvalues not converged
     c_bands:  1 eigenvalues not converged
     c_bands:  1 eigenvalues not converged
     c_bands:  1 eigenvalues not converged
     c_bands:  1 eigenvalues not converged
     c_bands:  1 eigenvalues not converged
     ethr =  1.00E-06,  avg # of iterations = 19.0

[...]

     total energy              =   -1957.84191408 Ry
     estimated scf accuracy    <       0.00000001 Ry

     iteration # 10     ecut=    70.00 Ry     beta= 0.50
     Davidson diagonalization with overlap
     ethr =  2.59E-11,  avg # of iterations =  2.0

     End of self-consistent calculation

[...]

          k = 0.2446-0.4892-0.4892 ( 21336 PWs)   bands (ev):

[...]

          k =-0.4892-0.4892-0.4892 ( 21368 PWs)   bands (ev):

   -21.7223 -21.7223 -21.7223 -21.6663 -21.6663 -12.1465 -11.5663 -11.5663
   -11.5663  -6.6614  -3.0043  -3.0043  -3.0043  -1.3607  -1.3607  -1.3607
    -0.8057  -0.8057  -0.6116  -0.6116  -0.6116   1.0674   4.0077

     occupation numbers
     1.0000   1.0000   1.0000   1.0000   1.0000   1.0000   1.0000   1.0000
     1.0000   1.0000   1.0000   1.0000   1.0000   1.0000   1.0000   1.0000
     1.0000   1.0000   1.0000   1.0000   1.0000   0.0000   0.0000

     highest occupied, lowest unoccupied level (ev):    -0.5618    1.0674

!    total energy              =   -1957.84191408 Ry

     total all-electron energy =    -69286.459475 Ry
     estimated scf accuracy    <          1.7E-09 Ry

     The total energy is the sum of the following terms:
     one-electron contribution =    -165.24514741 Ry
     hartree contribution      =      99.08740013 Ry
     xc contribution           =    -110.98308797 Ry
     ewald contribution        =    -113.82789651 Ry
     one-center paw contrib.   =   -1666.87318233 Ry
      -> PAW hartree energy AE =     109.63899758 Ry
      -> PAW hartree energy PS =    -108.89437709 Ry
      -> PAW xc energy AE      =    -329.04323089 Ry
      -> PAW xc energy PS      =      47.34610657 Ry
      -> total E_H with PAW    =      99.83202063 Ry
      -> total E_XC with PAW   =    -392.68021229 Ry

     convergence has been achieved in  10 iterations

     Forces acting on atoms (cartesian axes, Ry/au):

     atom    1 type  1   force =     0.00000000    0.00000000    0.00000000
     atom    2 type  2   force =    -0.00006968    0.00006968    0.00006968
     atom    3 type  2   force =     0.00006968   -0.00006968    0.00006968
     atom    4 type  2   force =     0.00006968    0.00006968   -0.00006968
     atom    5 type  2   force =    -0.00006968   -0.00006968   -0.00006968
     The non-local contrib.  to forces
     atom    1 type  1   force =     0.00000000    0.00000000    0.00000000
     atom    2 type  2   force =    -0.09034721    0.09034721    0.09034721
     atom    3 type  2   force =     0.09034721   -0.09034721    0.09034721
     atom    4 type  2   force =     0.09034721    0.09034721   -0.09034721
     atom    5 type  2   force =    -0.09034721   -0.09034721   -0.09034721
     The ionic contribution  to forces
     atom    1 type  1   force =     0.00000000    0.00000000    0.00000000
     atom    2 type  2   force =     3.93856406   -3.93856406   -3.93856406
     atom    3 type  2   force =    -3.93856406    3.93856406   -3.93856406
     atom    4 type  2   force =    -3.93856406   -3.93856406    3.93856406
     atom    5 type  2   force =     3.93856406    3.93856406    3.93856406
     The local contribution  to forces
     atom    1 type  1   force =     0.00000000    0.00000000   -0.00000000
     atom    2 type  2   force =    -3.85957869    3.85957869    3.85957869
     atom    3 type  2   force =     3.85957869   -3.85957869    3.85957869
     atom    4 type  2   force =     3.85957869    3.85957869   -3.85957869
     atom    5 type  2   force =    -3.85957869   -3.85957869   -3.85957869
     The core correction contribution to forces
     atom    1 type  1   force =     0.00000000    0.00000000    0.00000000
     atom    2 type  2   force =     0.01131768   -0.01131768   -0.01131768
     atom    3 type  2   force =    -0.01131768    0.01131768   -0.01131768
     atom    4 type  2   force =    -0.01131768   -0.01131768    0.01131768
     atom    5 type  2   force =     0.01131768    0.01131768    0.01131768
     The Hubbard contrib.    to forces
     atom    1 type  1   force =     0.00000000    0.00000000    0.00000000
     atom    2 type  2   force =     0.00000000    0.00000000    0.00000000
     atom    3 type  2   force =     0.00000000    0.00000000    0.00000000
     atom    4 type  2   force =     0.00000000    0.00000000    0.00000000
     atom    5 type  2   force =     0.00000000    0.00000000    0.00000000
     The SCF correction term to forces
     atom    1 type  1   force =    -0.00000000   -0.00000000   -0.00000000
     atom    2 type  2   force =    -0.00002552    0.00002552    0.00002552
     atom    3 type  2   force =     0.00002552   -0.00002552    0.00002552
     atom    4 type  2   force =     0.00002552    0.00002552   -0.00002552
     atom    5 type  2   force =    -0.00002552   -0.00002552   -0.00002552

     Total force =     0.000241     Total SCF correction =     0.000088
     SCF correction compared to forces is large: reduce conv_thr to get better values

     Computing stress (Cartesian axis) and pressure

          total   stress  (Ry/bohr**3)                   (kbar)     P=        0.20
   0.00000137   0.00000000   0.00000000            0.20        0.00        0.00
   0.00000000   0.00000137   0.00000000            0.00        0.20        0.00
   0.00000000   0.00000000   0.00000137            0.00        0.00        0.20

     kinetic stress (kbar)   3749.44      0.00      0.00
                                0.00   3749.44      0.00
                                0.00      0.00   3749.44

     local   stress (kbar)  -2922.85      0.00      0.00
                                0.00  -2922.85      0.00
                                0.00      0.00  -2922.85

     nonloc. stress (kbar)    744.69      0.00      0.00
                                0.00    744.69      0.00
                                0.00      0.00    744.69

     hartree stress (kbar)   2256.28      0.00      0.00
                                0.00   2256.28      0.00
                                0.00      0.00   2256.28

     exc-cor stress (kbar)   3841.14     -0.00     -0.00
                               -0.00   3841.14     -0.00
                               -0.00     -0.00   3841.14

     corecor stress (kbar)  -5076.56      0.00      0.00
                                0.00  -5076.56      0.00
                                0.00      0.00  -5076.56

     ewald   stress (kbar)  -2591.93     -0.00     -0.00
                               -0.00  -2591.93     -0.00
                               -0.00     -0.00  -2591.93

     hubbard stress (kbar)      0.00      0.00      0.00
                                0.00      0.00      0.00
                                0.00      0.00      0.00

     DFT-D   stress (kbar)      0.00      0.00      0.00
                                0.00      0.00      0.00
                                0.00      0.00      0.00

     XDM     stress (kbar)      0.00      0.00      0.00
                                0.00      0.00      0.00
                                0.00      0.00      0.00

     dft-nl  stress (kbar)      0.00      0.00      0.00
                                0.00      0.00      0.00
                                0.00      0.00      0.00

     TS-vdW  stress (kbar)      0.00      0.00      0.00
                                0.00      0.00      0.00
                                0.00      0.00      0.00

     Writing output data file ./out/SnI4un.save/

     General routines

     Parallel routines

     PAW routines

   This run was terminated on:  16:51:47  15Jan2021

   JOB DONE.