     Program PWSCF v.6.7MaX starts on 15Jan2021 at 15:28:47

     R & G space division:  proc/nbgrp/npool/nimage =      32
     Waiting for input...
     Reading input from standard input

     Current dimensions of program PWSCF are:
     Max number of different atomic species (ntypx) = 10
     Max number of k-points (npk) =  40000
     Max angular momentum in pseudopotentials (lmaxx) =  3
     file Sn.pbe-dn-kjpaw_psl.1.0.0.UPF: wavefunction(s)  5S 5P 4D renormalized
     file I.pbe-n-kjpaw_psl.1.0.0.UPF: wavefunction(s)  5S renormalized

     Subspace diagonalization in iterative solution of the eigenvalue problem:
     a serial algorithm will be used

     Message from routine setup:
     using ibrav=0 with symmetry is DISCOURAGED, use correct ibrav instead

     Title:
     SnI2tetr

     bravais-lattice index     =            0
     lattice parameter (alat)  =      14.4199  a.u.
     unit-cell volume          =    1845.1511 (a.u.)^3
     number of atoms/cell      =            6
     number of atomic types    =            2
     number of electrons       =        56.00
     number of Kohn-Sham states=           29
     kinetic-energy cutoff     =      70.0000  Ry
     charge density cutoff     =     280.0000  Ry
     scf convergence threshold =      1.0E-06
     mixing beta               =       0.5000
     number of iterations used =            8  plain     mixing
     energy convergence thresh.=      1.0E-04
     force convergence thresh. =      1.0E-04
     press convergence thresh. =      5.0E-01
     Exchange-correlation= SLA  PW   PBX  PBC
                           (   1   4   3   4   0   0   0)
     nstep                     =           50

     celldm(1)=  14.419944  celldm(2)=   0.000000  celldm(3)=   0.000000
     celldm(4)=   0.000000  celldm(5)=   0.000000  celldm(6)=   0.000000

     crystal axes: (cart. coord. in units of alat)
               a(1) = (   1.000000   0.000000   0.000000 )
               a(2) = (   0.000000   1.000000   0.000000 )
               a(3) = (   0.000000   0.000000   0.615377 )

     reciprocal axes: (cart. coord. in units 2 pi/alat)
               b(1) = (  1.000000  0.000000  0.000000 )
               b(2) = (  0.000000  1.000000  0.000000 )
               b(3) = (  0.000000  0.000000  1.625020 )

     PseudoPot. # 1 for Sn read from file:
     ../../pseudo/Sn.pbe-dn-kjpaw_psl.1.0.0.UPF
     MD5 check sum: 67f11dec737d427557dc41ea34975807
     Pseudo is Projector augmented-wave + core cor, Zval = 14.0
     Generated using &quot;atomic&quot; code by A. Dal Corso  v.6.3
     Shape of augmentation charge: PSQ
     Using radial grid of 1243 points,  6 beta functions with:
                l(1) =   0
                l(2) =   0
                l(3) =   1
                l(4) =   1
                l(5) =   2
                l(6) =   2
     Q(r) pseudized with 0 coefficients

     PseudoPot. # 2 for I  read from file:
     ../../pseudo/I.pbe-n-kjpaw_psl.1.0.0.UPF
     MD5 check sum: cd3d296c3308a581e1559a0c8a554cb5
     Pseudo is Projector augmented-wave + core cor, Zval =  7.0
     Generated using &quot;atomic&quot; code by A. Dal Corso  v.6.3
     Shape of augmentation charge: PSQ
     Using radial grid of 1247 points,  6 beta functions with:
                l(1) =   0
                l(2) =   0
                l(3) =   1
                l(4) =   1
                l(5) =   2
                l(6) =   2
     Q(r) pseudized with 0 coefficients

     atomic species   valence    mass     pseudopotential
        Sn            14.00   118.70000     Sn( 1.00)
        I              7.00   126.90000     I ( 1.00)

     16 Sym. Ops., with inversion, found ( 8 have fractional translation)

                                    s                        frac. trans.

      isym =  1     identity

 cryst.   s( 1) = (     1          0          0      )
                  (     0          1          0      )
                  (     0          0          1      )

 cart.    s( 1) = (  1.0000000  0.0000000  0.0000000 )
                  (  0.0000000  1.0000000  0.0000000 )
                  (  0.0000000  0.0000000  1.0000000 )

      isym =  2     180 deg rotation - cart. axis [0,0,1]

[...]

 cryst.   s( 3) = (    -1          0          0      )    f =(  0.5000000 )
                  (     0          1          0      )       ( -0.5000000 )
                  (     0          0         -1      )       (  0.5000000 )

 cart.    s( 3) = ( -1.0000000  0.0000000  0.0000000 )    f =(  0.5000000 )
                  (  0.0000000  1.0000000  0.0000000 )       ( -0.5000000 )
                  (  0.0000000  0.0000000 -1.0000000 )       (  0.3076884 )

[...]

      isym =  9     inversion

[...]

      isym = 10     inv. 180 deg rotation - cart. axis [0,0,1]

 cryst.   s(10) = (     1          0          0      )
                  (     0          1          0      )
                  (     0          0         -1      )

 cart.    s(10) = (  1.0000000  0.0000000  0.0000000 )
                  (  0.0000000  1.0000000  0.0000000 )
                  (  0.0000000  0.0000000 -1.0000000 )

[...]

 cryst.   s(11) = (     1          0          0      )    f =( -0.5000000 )
                  (     0         -1          0      )       (  0.5000000 )
                  (     0          0          1      )       ( -0.5000000 )

 cart.    s(11) = (  1.0000000  0.0000000  0.0000000 )    f =( -0.5000000 )
                  (  0.0000000 -1.0000000  0.0000000 )       (  0.5000000 )
                  (  0.0000000  0.0000000  1.0000000 )       ( -0.3076884 )

[...]

   Cartesian axes

     site n.     atom                  positions (alat units)
         1           Sn  tau(   1) = (   0.0000000   0.0000000   0.0000000  )
         2           Sn  tau(   2) = (   0.5000000   0.5000000   0.3076884  )
         3           I   tau(   3) = (   0.2985210   0.2985210   0.0000000  )
         4           I   tau(   4) = (   0.7014790   0.7014790   0.0000000  )
         5           I   tau(   5) = (   0.7985210   0.2014790   0.3076884  )
         6           I   tau(   6) = (   0.2014790   0.7985210   0.3076884  )

   Crystallographic axes

     site n.     atom                  positions (cryst. coord.)
         1           Sn  tau(   1) = (  0.0000000  0.0000000  0.0000000  )
         2           Sn  tau(   2) = (  0.5000000  0.5000000  0.5000000  )
         3           I   tau(   3) = (  0.2985210  0.2985210  0.0000000  )
         4           I   tau(   4) = (  0.7014790  0.7014790  0.0000000  )
         5           I   tau(   5) = (  0.7985210  0.2014790  0.5000000  )
         6           I   tau(   6) = (  0.2014790  0.7985210  0.5000000  )

     number of k points=    18
                       cart. coord. in units 2pi/alat
        k(    1) = (   0.0000000   0.0000000   0.0000000), wk =   0.0312500
        k(    2) = (   0.0000000   0.0000000   0.4062551), wk =   0.0625000
        k(    3) = (   0.0000000   0.0000000  -0.8125102), wk =   0.0312500
        k(    4) = (   0.0000000   0.2500000   0.0000000), wk =   0.1250000
        k(    5) = (   0.0000000   0.2500000   0.4062551), wk =   0.2500000
        k(    6) = (   0.0000000   0.2500000  -0.8125102), wk =   0.1250000
        k(    7) = (   0.0000000  -0.5000000   0.0000000), wk =   0.0625000
        k(    8) = (   0.0000000  -0.5000000   0.4062551), wk =   0.1250000
        k(    9) = (   0.0000000  -0.5000000  -0.8125102), wk =   0.0625000
        k(   10) = (   0.2500000   0.2500000   0.0000000), wk =   0.1250000
        k(   11) = (   0.2500000   0.2500000   0.4062551), wk =   0.2500000
        k(   12) = (   0.2500000   0.2500000  -0.8125102), wk =   0.1250000
        k(   13) = (   0.2500000  -0.5000000   0.0000000), wk =   0.1250000
        k(   14) = (   0.2500000  -0.5000000   0.4062551), wk =   0.2500000
        k(   15) = (   0.2500000  -0.5000000  -0.8125102), wk =   0.1250000
        k(   16) = (  -0.5000000  -0.5000000   0.0000000), wk =   0.0312500
        k(   17) = (  -0.5000000  -0.5000000   0.4062551), wk =   0.0625000
        k(   18) = (  -0.5000000  -0.5000000  -0.8125102), wk =   0.0312500

                       cryst. coord.
        k(    1) = (   0.0000000   0.0000000   0.0000000), wk =   0.0312500
        k(    2) = (   0.0000000   0.0000000   0.2500000), wk =   0.0625000
        k(    3) = (   0.0000000   0.0000000  -0.5000000), wk =   0.0312500
        k(    4) = (   0.0000000   0.2500000   0.0000000), wk =   0.1250000
        k(    5) = (   0.0000000   0.2500000   0.2500000), wk =   0.2500000
        k(    6) = (   0.0000000   0.2500000  -0.5000000), wk =   0.1250000
        k(    7) = (   0.0000000  -0.5000000   0.0000000), wk =   0.0625000
        k(    8) = (   0.0000000  -0.5000000   0.2500000), wk =   0.1250000
        k(    9) = (   0.0000000  -0.5000000  -0.5000000), wk =   0.0625000
        k(   10) = (   0.2500000   0.2500000   0.0000000), wk =   0.1250000
        k(   11) = (   0.2500000   0.2500000   0.2500000), wk =   0.2500000
        k(   12) = (   0.2500000   0.2500000  -0.5000000), wk =   0.1250000
        k(   13) = (   0.2500000  -0.5000000   0.0000000), wk =   0.1250000
        k(   14) = (   0.2500000  -0.5000000   0.2500000), wk =   0.2500000
        k(   15) = (   0.2500000  -0.5000000  -0.5000000), wk =   0.1250000
        k(   16) = (  -0.5000000  -0.5000000   0.0000000), wk =   0.0312500
        k(   17) = (  -0.5000000  -0.5000000   0.2500000), wk =   0.0625000
        k(   18) = (  -0.5000000  -0.5000000  -0.5000000), wk =   0.0312500

     Initial potential from superposition of free atoms

     starting charge   55.99693, renormalised to   56.00000
     Starting wfcs are   34 randomized atomic wfcs
     Checking if some PAW data can be deallocated...

     Self-consistent Calculation

     iteration #  1     ecut=    70.00 Ry     beta= 0.50
     Davidson diagonalization with overlap
     ethr =  1.00E-02,  avg # of iterations =  2.0

     Threshold (ethr) on eigenvalues was too large:
     Diagonalizing with lowered threshold

     Davidson diagonalization with overlap
     ethr =  2.34E-04,  avg # of iterations =  2.3

     total energy              =   -2399.95617411 Ry
     estimated scf accuracy    <       0.11764168 Ry

[...]

     iteration #  6     ecut=    70.00 Ry     beta= 0.50
     Davidson diagonalization with overlap
     c_bands:  1 eigenvalues not converged
     ethr =  1.08E-08,  avg # of iterations =  6.9

[...]

     End of self-consistent calculation

          k = 0.0000 0.0000 0.0000 ( 18231 PWs)   bands (ev):

   -18.3228 -18.3198 -18.3127 -18.3123 -18.3091 -18.3091 -18.3088 -18.3088
   -18.3080 -18.3080  -9.3426  -8.8348  -8.8348  -8.7162  -4.1171  -2.2612
    -0.1082  -0.1082   0.4274   0.7356   1.2468   1.3488   1.5960   1.5960
     2.0034   2.0034   2.3767   2.8706   4.5454

     occupation numbers
     1.0000   1.0000   1.0000   1.0000   1.0000   1.0000   1.0000   1.0000
     1.0000   1.0000   1.0000   1.0000   1.0000   1.0000   1.0000   1.0000
     1.0000   1.0000   1.0000   1.0000   1.0000   1.0000   1.0000   1.0000
     1.0000   1.0000   1.0000   1.0000   0.0000

[...]

          k =-0.5000-0.5000 0.0000 ( 18240 PWs)   bands (ev):

[...]

[...]
     charge density cutoff     =     280.0000  Ry
     scf convergence threshold =      1.0E-08
     mixing beta               =       0.5000
     number of iterations used =            8  plain     mixing
     press convergence thresh. =      5.0E-01
     Exchange-correlation= SLA  PW   PBX  PBC
                           (   1   4   3   4   0   0   0)

     celldm(1)=  14.419944  celldm(2)=   0.000000  celldm(3)=   0.000000
     celldm(4)=   0.000000  celldm(5)=   0.000000  celldm(6)=   0.000000

     crystal axes: (cart. coord. in units of alat)
               a(1) = (   0.997490   0.000000   0.000000 )
               a(2) = (   0.000000   0.997490   0.000000 )
               a(3) = (   0.000000   0.000000   0.615570 )

     reciprocal axes: (cart. coord. in units 2 pi/alat)
               b(1) = (  1.002516  0.000000  0.000000 )
               b(2) = (  0.000000  1.002516  0.000000 )
               b(3) = (  0.000000  0.000000  1.624510 )

     PseudoPot. # 1 for Sn read from file:
     ../../pseudo/Sn.pbe-dn-kjpaw_psl.1.0.0.UPF
     MD5 check sum: 67f11dec737d427557dc41ea34975807
     Pseudo is Projector augmented-wave + core cor, Zval = 14.0
     Generated using &quot;atomic&quot; code by A. Dal Corso  v.6.3
     Shape of augmentation charge: PSQ
     Using radial grid of 1243 points,  6 beta functions with:
                l(1) =   0
                l(2) =   0
                l(3) =   1
                l(4) =   1
                l(5) =   2
                l(6) =   2
     Q(r) pseudized with 0 coefficients

     PseudoPot. # 2 for I  read from file:
     ../../pseudo/I.pbe-n-kjpaw_psl.1.0.0.UPF
     MD5 check sum: cd3d296c3308a581e1559a0c8a554cb5
     Pseudo is Projector augmented-wave + core cor, Zval =  7.0
     Generated using &quot;atomic&quot; code by A. Dal Corso  v.6.3
     Shape of augmentation charge: PSQ
     Using radial grid of 1247 points,  6 beta functions with:
                l(1) =   0
                l(2) =   0
                l(3) =   1
                l(4) =   1
                l(5) =   2
                l(6) =   2
     Q(r) pseudized with 0 coefficients

     atomic species   valence    mass     pseudopotential
        Sn            14.00   118.70000     Sn( 1.00)
        I              7.00   126.90000     I ( 1.00)

     16 Sym. Ops., with inversion, found ( 8 have fractional translation)

                                    s                        frac. trans.

      isym =  1     identity

[...]

      isym =  8      90 deg rotation - cart. axis [0,0,1]

 cryst.   s( 8) = (     0          1          0      )    f =(  0.5000000 )
                  (    -1          0          0      )       ( -0.5000000 )
                  (     0          0          1      )       ( -0.5000000 )

 cart.    s( 8) = (  0.0000000 -1.0000000  0.0000000 )    f =(  0.4987450 )
                  (  1.0000000  0.0000000  0.0000000 )       ( -0.4987450 )
                  (  0.0000000  0.0000000  1.0000000 )       ( -0.3077850 )

      isym =  9     inversion

 cryst.   s( 9) = (    -1          0          0      )
                  (     0         -1          0      )
                  (     0          0         -1      )

 cart.    s( 9) = ( -1.0000000  0.0000000  0.0000000 )
                  (  0.0000000 -1.0000000  0.0000000 )
                  (  0.0000000  0.0000000 -1.0000000 )

[...]

 cryst.   s(14) = (     0          1          0      )
                  (     1          0          0      )
                  (     0          0          1      )

 cart.    s(14) = (  0.0000000  1.0000000  0.0000000 )
                  (  1.0000000  0.0000000  0.0000000 )
                  (  0.0000000  0.0000000  1.0000000 )

[...]

      isym = 16     inv.  90 deg rotation - cart. axis [0,0,1]

 cryst.   s(16) = (     0         -1          0      )    f =( -0.5000000 )
                  (     1          0          0      )       (  0.5000000 )
                  (     0          0         -1      )       (  0.5000000 )

 cart.    s(16) = (  0.0000000  1.0000000  0.0000000 )    f =( -0.4987450 )
                  ( -1.0000000  0.0000000  0.0000000 )       (  0.4987450 )
                  (  0.0000000  0.0000000 -1.0000000 )       (  0.3077850 )

   Cartesian axes

     site n.     atom                  positions (alat units)
         1           Sn  tau(   1) = (   0.0000000   0.0000000   0.0000000  )
         2           Sn  tau(   2) = (   0.4987450   0.4987450   0.3077850  )
         3           I   tau(   3) = (   0.2975352   0.2975352   0.0000000  )
         4           I   tau(   4) = (   0.6999547   0.6999547   0.0000000  )
         5           I   tau(   5) = (   0.7962802   0.2012097   0.3077850  )
         6           I   tau(   6) = (   0.2012097   0.7962802   0.3077850  )

   Crystallographic axes

     site n.     atom                  positions (cryst. coord.)
         1           Sn  tau(   1) = (  0.0000000  0.0000000  0.0000000  )
         2           Sn  tau(   2) = (  0.5000000  0.5000000  0.5000000  )
         3           I   tau(   3) = (  0.2982839  0.2982839  0.0000000  )
         4           I   tau(   4) = (  0.7017161  0.7017161  0.0000000  )
         5           I   tau(   5) = (  0.7982839  0.2017161  0.5000000  )
         6           I   tau(   6) = (  0.2017161  0.7982839  0.5000000  )

     number of k points=    18
                       cart. coord. in units 2pi/alat
        k(    1) = (   0.0000000   0.0000000   0.0000000), wk =   0.0312500
        k(    2) = (   0.0000000   0.0000000   0.4061276), wk =   0.0625000
        k(    3) = (   0.0000000   0.0000000  -0.8122552), wk =   0.0312500
        k(    4) = (   0.0000000   0.2506291   0.0000000), wk =   0.1250000
        k(    5) = (   0.0000000   0.2506291   0.4061276), wk =   0.2500000
        k(    6) = (   0.0000000   0.2506291  -0.8122552), wk =   0.1250000
        k(    7) = (   0.0000000  -0.5012582   0.0000000), wk =   0.0625000
        k(    8) = (   0.0000000  -0.5012582   0.4061276), wk =   0.1250000
        k(    9) = (   0.0000000  -0.5012582  -0.8122552), wk =   0.0625000
        k(   10) = (   0.2506291   0.2506291   0.0000000), wk =   0.1250000
        k(   11) = (   0.2506291   0.2506291   0.4061276), wk =   0.2500000
        k(   12) = (   0.2506291   0.2506291  -0.8122552), wk =   0.1250000
        k(   13) = (   0.2506291  -0.5012582   0.0000000), wk =   0.1250000
        k(   14) = (   0.2506291  -0.5012582   0.4061276), wk =   0.2500000
        k(   15) = (   0.2506291  -0.5012582  -0.8122552), wk =   0.1250000
        k(   16) = (  -0.5012582  -0.5012582   0.0000000), wk =   0.0312500
        k(   17) = (  -0.5012582  -0.5012582   0.4061276), wk =   0.0625000
        k(   18) = (  -0.5012582  -0.5012582  -0.8122552), wk =   0.0312500

                       cryst. coord.
        k(    1) = (   0.0000000   0.0000000   0.0000000), wk =   0.0312500
        k(    2) = (   0.0000000   0.0000000   0.2500000), wk =   0.0625000
        k(    3) = (   0.0000000   0.0000000  -0.5000000), wk =   0.0312500
        k(    4) = (   0.0000000   0.2500000   0.0000000), wk =   0.1250000
        k(    5) = (   0.0000000   0.2500000   0.2500000), wk =   0.2500000
        k(    6) = (   0.0000000   0.2500000  -0.5000000), wk =   0.1250000
        k(    7) = (   0.0000000  -0.5000000   0.0000000), wk =   0.0625000
        k(    8) = (   0.0000000  -0.5000000   0.2500000), wk =   0.1250000
        k(    9) = (   0.0000000  -0.5000000  -0.5000000), wk =   0.0625000
        k(   10) = (   0.2500000   0.2500000   0.0000000), wk =   0.1250000
        k(   11) = (   0.2500000   0.2500000   0.2500000), wk =   0.2500000
        k(   12) = (   0.2500000   0.2500000  -0.5000000), wk =   0.1250000
        k(   13) = (   0.2500000  -0.5000000   0.0000000), wk =   0.1250000
        k(   14) = (   0.2500000  -0.5000000   0.2500000), wk =   0.2500000
        k(   15) = (   0.2500000  -0.5000000  -0.5000000), wk =   0.1250000
        k(   16) = (  -0.5000000  -0.5000000   0.0000000), wk =   0.0312500
        k(   17) = (  -0.5000000  -0.5000000   0.2500000), wk =   0.0625000
        k(   18) = (  -0.5000000  -0.5000000  -0.5000000), wk =   0.0312500

     Initial potential from superposition of free atoms

     starting charge   55.99693, renormalised to   56.00000
     Starting wfcs are   34 randomized atomic wfcs
     Checking if some PAW data can be deallocated...

     Self-consistent Calculation

     iteration #  1     ecut=    70.00 Ry     beta= 0.50
     Davidson diagonalization with overlap
     c_bands:  1 eigenvalues not converged
     ethr =  1.00E-06,  avg # of iterations = 12.8

[...]

     total energy              =   -2399.99007876 Ry
     estimated scf accuracy    <       0.00000011 Ry

     iteration #  9     ecut=    70.00 Ry     beta= 0.50
     Davidson diagonalization with overlap
     ethr =  6.34E-11,  avg # of iterations =  4.1

     End of self-consistent calculation

[...]

          k = 0.2506-0.5013-0.8123 ( 18184 PWs)   bands (ev):

[...]

          k =-0.5013-0.5013-0.8123 ( 18168 PWs)   bands (ev):

   -18.2699 -18.2699 -18.2650 -18.2650 -18.2627 -18.2627 -18.2592 -18.2592
   -18.2559 -18.2559  -8.8366  -8.8366  -8.6880  -8.6880  -3.6923  -3.6923
    -0.2124  -0.2124   0.3172   0.3172   0.5782   0.5782   1.8614   1.8614
     1.8732   1.8732   2.0573   2.0573   6.0842

     occupation numbers
     1.0000   1.0000   1.0000   1.0000   1.0000   1.0000   1.0000   1.0000
     1.0000   1.0000   1.0000   1.0000   1.0000   1.0000   1.0000   1.0000
     1.0000   1.0000   1.0000   1.0000   1.0000   1.0000   1.0000   1.0000
     1.0000   1.0000   1.0000   1.0000   0.0000

     highest occupied, lowest unoccupied level (ev):     3.1303    4.3702

!    total energy              =   -2399.99007879 Ry

     total all-electron energy =    -81641.235426 Ry
     estimated scf accuracy    <          4.2E-10 Ry

     The total energy is the sum of the following terms:
     one-electron contribution =    -203.09790681 Ry
     hartree contribution      =     129.90219089 Ry
     xc contribution           =    -159.03023023 Ry
     ewald contribution        =    -219.97209784 Ry
     one-center paw contrib.   =   -1947.79203479 Ry
      -> PAW hartree energy AE =     108.44439113 Ry
      -> PAW hartree energy PS =    -107.67838669 Ry
      -> PAW xc energy AE      =    -328.96597966 Ry
      -> PAW xc energy PS      =      47.26461283 Ry
      -> total E_H with PAW    =     130.66819532 Ry
      -> total E_XC with PAW   =    -440.73159707 Ry

     convergence has been achieved in   9 iterations

     Forces acting on atoms (cartesian axes, Ry/au):

     atom    1 type  1   force =     0.00000000    0.00000000    0.00000000
     atom    2 type  1   force =     0.00000000    0.00000000    0.00000000
     atom    3 type  2   force =    -0.00005425   -0.00005425    0.00000000
     atom    4 type  2   force =     0.00005425    0.00005425   -0.00000000
     atom    5 type  2   force =    -0.00005425    0.00005425   -0.00000000
     atom    6 type  2   force =     0.00005425   -0.00005425   -0.00000000
     The non-local contrib.  to forces
     atom    1 type  1   force =     0.00000000    0.00000000   -0.00000000
     atom    2 type  1   force =     0.00000000    0.00000000   -0.00000000
     atom    3 type  2   force =     0.01473648    0.01473648    0.00000000
     atom    4 type  2   force =    -0.01473648   -0.01473648    0.00000000
     atom    5 type  2   force =     0.01473648   -0.01473648   -0.00000000
     atom    6 type  2   force =    -0.01473648    0.01473648   -0.00000000
     The ionic contribution  to forces
     atom    1 type  1   force =     0.00000000    0.00000000   -0.00000000
     atom    2 type  1   force =    -0.00000000   -0.00000000    0.00000000
     atom    3 type  2   force =    -0.88503928   -0.88503928   -0.00000000
     atom    4 type  2   force =     0.88503928    0.88503928   -0.00000000
     atom    5 type  2   force =    -0.88503928    0.88503928    0.00000000
     atom    6 type  2   force =     0.88503928   -0.88503928    0.00000000
     The local contribution  to forces
     atom    1 type  1   force =     0.00000000    0.00000000    0.00000000
     atom    2 type  1   force =    -0.00000000   -0.00000000    0.00000000
     atom    3 type  2   force =     0.87213086    0.87213086    0.00000000
     atom    4 type  2   force =    -0.87213086   -0.87213086    0.00000000
     atom    5 type  2   force =     0.87213086   -0.87213086    0.00000000
     atom    6 type  2   force =    -0.87213086    0.87213086    0.00000000
     The core correction contribution to forces
     atom    1 type  1   force =     0.00000000    0.00000000    0.00000000
     atom    2 type  1   force =    -0.00000000   -0.00000000    0.00000000
     atom    3 type  2   force =    -0.00188241   -0.00188241    0.00000000
     atom    4 type  2   force =     0.00188241    0.00188241    0.00000000
     atom    5 type  2   force =    -0.00188241    0.00188241   -0.00000000
     atom    6 type  2   force =     0.00188241   -0.00188241   -0.00000000
     The Hubbard contrib.    to forces
     atom    1 type  1   force =     0.00000000    0.00000000    0.00000000
     atom    2 type  1   force =     0.00000000    0.00000000    0.00000000
     atom    3 type  2   force =     0.00000000    0.00000000    0.00000000
     atom    4 type  2   force =     0.00000000    0.00000000    0.00000000
     atom    5 type  2   force =     0.00000000    0.00000000    0.00000000
     atom    6 type  2   force =     0.00000000    0.00000000    0.00000000
     The SCF correction term to forces
     atom    1 type  1   force =     0.00000000   -0.00000000    0.00000000
     atom    2 type  1   force =    -0.00000000   -0.00000000    0.00000000
     atom    3 type  2   force =     0.00000010    0.00000010   -0.00000000
     atom    4 type  2   force =    -0.00000010   -0.00000010   -0.00000000
     atom    5 type  2   force =     0.00000010   -0.00000010   -0.00000000
     atom    6 type  2   force =    -0.00000010    0.00000010   -0.00000000

     Total force =     0.000153     Total SCF correction =     0.000000

     Computing stress (Cartesian axis) and pressure

          total   stress  (Ry/bohr**3)                   (kbar)     P=       -0.45
  -0.00000332   0.00000000   0.00000000           -0.49        0.00        0.00
   0.00000000  -0.00000332   0.00000000            0.00       -0.49        0.00
   0.00000000   0.00000000  -0.00000263            0.00        0.00       -0.39

     kinetic stress (kbar)   7350.44      0.00      0.00
                                0.00   7350.44      0.00
                                0.00      0.00   7324.88

     local   stress (kbar)  -1453.22     -0.00      0.00
                               -0.00  -1453.22      0.00
                                0.00      0.00  -5821.96

     nonloc. stress (kbar)    117.61      0.00      0.00
                                0.00    117.61      0.00
                                0.00      0.00    117.18

     hartree stress (kbar)   2843.38      0.00      0.00
                                0.00   2843.38     -0.00
                                0.00     -0.00   4718.64

     exc-cor stress (kbar)   6190.18      0.00     -0.00
                                0.00   6190.18     -0.00
                               -0.00     -0.00   6191.20

     corecor stress (kbar)  -8336.32      0.00      0.00
                                0.00  -8336.32      0.00
                                0.00      0.00  -8335.28

     ewald   stress (kbar)  -6712.56      0.00      0.00
                                0.00  -6712.56      0.00
                                0.00      0.00  -4195.05

     hubbard stress (kbar)      0.00      0.00      0.00
                                0.00      0.00      0.00
                                0.00      0.00      0.00

     DFT-D   stress (kbar)      0.00      0.00      0.00
                                0.00      0.00      0.00
                                0.00      0.00      0.00

     XDM     stress (kbar)      0.00      0.00      0.00
                                0.00      0.00      0.00
                                0.00      0.00      0.00

     dft-nl  stress (kbar)      0.00      0.00      0.00
                                0.00      0.00      0.00
                                0.00      0.00      0.00

     TS-vdW  stress (kbar)      0.00      0.00      0.00
                                0.00      0.00      0.00
                                0.00      0.00      0.00

     Writing output data file ./out/SnI2tetr.save/

     General routines

     Parallel routines

     PAW routines

   This run was terminated on:  16:56:31  15Jan2021

   JOB DONE.