     Program PWSCF v.6.3 starts on 15Feb2021 at 11:28:59

     R & G space division:  proc/nbgrp/npool/nimage =      32
     Waiting for input...
     Reading input from standard input

     Current dimensions of program PWSCF are:
     Max number of different atomic species (ntypx) = 10
     Max number of k-points (npk) =  40000
     Max angular momentum in pseudopotentials (lmaxx) =  3
               file Sn.rel-pbe-dn-rrkjus_psl.1.0.0.UPF: wavefunction(s)  5S 4D 4D renormalized
               file Cs.rel-pbe-spn-rrkjus_psl.1.0.0.UPF: wavefunction(s)  5S 6S renormalized

     Found symmetry operation: I + ( -0.5000 -0.5000 -0.5000)
     This is a supercell, fractional translations are disabled

     Title:
     perovskite

     bravais-lattice index     =            0
     lattice parameter (alat)  =      16.5857  a.u.
     unit-cell volume          =    6523.1011 (a.u.)^3
     number of atoms/cell      =           20
     number of atomic types    =            3
     number of electrons       =       176.00
     number of Kohn-Sham states=          176
     kinetic-energy cutoff     =      80.0000  Ry
     charge density cutoff     =     320.0000  Ry
     convergence threshold     =      1.0E-07
     mixing beta               =       0.6000
     number of iterations used =            8  plain     mixing
     Exchange-correlation      = PBE ( 1  4  3  4 0 0)
     nstep                     =           50

     Non magnetic calculation with spin-orbit

     celldm(1)=  16.585700  celldm(2)=   0.000000  celldm(3)=   0.000000
     celldm(4)=   0.000000  celldm(5)=   0.000000  celldm(6)=   0.000000

     crystal axes: (cart. coord. in units of alat)
               a(1) = (   1.000000   0.000000   0.000000 )
               a(2) = (   0.000000   1.000000   0.000000 )
               a(3) = (   0.000000   0.000000   1.429726 )

     reciprocal axes: (cart. coord. in units 2 pi/alat)
               b(1) = (  1.000000  0.000000  0.000000 )
               b(2) = (  0.000000  1.000000  0.000000 )
               b(3) = (  0.000000  0.000000  0.699435 )

     PseudoPot. # 1 for Sn read from file:
     ./Sn.rel-pbe-dn-rrkjus_psl.1.0.0.UPF
     MD5 check sum: e9415cc9ba1036dfb73502962f03961a
     Pseudo is Ultrasoft + core correction, Zval = 14.0
     Generated using "atomic" code by A. Dal Corso v.6.3
     Using radial grid of 1243 points, 10 beta functions with:
                l(1) =   0
                l(2) =   0
                l(3) =   1
                l(4) =   1
                l(5) =   1
                l(6) =   1
                l(7) =   2
                l(8) =   2
                l(9) =   2
               l(10) =   2
     Q(r) pseudized with 0 coefficients

     PseudoPot. # 2 for I  read from file:
     ./I.rel-pbe-n-rrkjus_psl.0.2.2.UPF
     MD5 check sum: b9024a078df971004264c9bcc9ff756e
     Pseudo is Ultrasoft + core correction, Zval =  7.0
     Generated using "atomic" code by A. Dal Corso v.5.0.2 svn rev. 9415
     Using radial grid of 1247 points,  6 beta functions with:
                l(1) =   0
                l(2) =   0
                l(3) =   1
                l(4) =   1
                l(5) =   1
                l(6) =   1
     Q(r) pseudized with 0 coefficients

     PseudoPot. # 3 for Cs read from file:
     ./Cs.rel-pbe-spn-rrkjus_psl.1.0.0.UPF
     MD5 check sum: 92f45d5fced885c1284380ec35df8368
     Pseudo is Ultrasoft + core correction, Zval =  9.0
     Generated using "atomic" code by A. Dal Corso v.6.4.1
     Using radial grid of 1251 points, 15 beta functions with:
                l(1) =   0
                l(2) =   0
                l(3) =   0
                l(4) =   1
                l(5) =   1
                l(6) =   1
                l(7) =   1
                l(8) =   2
                l(9) =   2
               l(10) =   2
               l(11) =   2
               l(12) =   3
               l(13) =   3
               l(14) =   3
               l(15) =   3
     Q(r) pseudized with 0 coefficients

     atomic species   valence    mass     pseudopotential
        Sn            14.00   118.70000     Sn( 1.00)
        I              7.00   126.90000     I ( 1.00)
        Cs             9.00   132.90000     Cs( 1.00)

      8 Sym. Ops. (no inversion) found

                                    s                        frac. trans.

      isym =  1     identity

 cryst.   s( 1) = (     1          0          0      )
                  (     0          1          0      )
                  (     0          0          1      )

 cart.    s( 1) = (  1.0000000  0.0000000  0.0000000 )
                  (  0.0000000  1.0000000  0.0000000 )
                  (  0.0000000  0.0000000  1.0000000 )

      isym =  2     180 deg rotation - cart. axis [0,0,1]

[...]

      isym =  5     inv. 180 deg rotation - cart. axis [1,1,0]

[...]

   Cartesian axes

     site n.     atom                  positions (alat units)
         1           Cs  tau(   1) = (   0.0000000   0.0000000   0.3574314  )
         2           Cs  tau(   2) = (   0.5000000   0.5000000   1.0722942  )
         3           Cs  tau(   3) = (   0.0000000   0.0000000   1.0722942  )
         4           Cs  tau(   4) = (   0.5000000   0.5000000   0.3574314  )
         5           Sn  tau(   5) = (   0.0000000   0.0000000   0.0000000  )
         6           Sn  tau(   6) = (   0.5000000   0.5000000   0.7148628  )
         7           Sn  tau(   7) = (   0.0000000   0.0000000   0.7148628  )
         8           Sn  tau(   8) = (   0.5000000   0.5000000   0.0000000  )
         9           I   tau(   9) = (   0.2012640   0.2012640   1.0722942  )
        10           I   tau(  10) = (   0.7012640   0.7012640   0.3574314  )
        11           I   tau(  11) = (   0.2987360   0.2987360   0.3574314  )
        12           I   tau(  12) = (   0.7987360   0.7987360   1.0722942  )
        13           I   tau(  13) = (   0.7987360   0.2012640   0.3574314  )
        14           I   tau(  14) = (   0.2987360   0.7012640   1.0722942  )
        15           I   tau(  15) = (   0.2012640   0.7987360   0.3574314  )
        16           I   tau(  16) = (   0.7012640   0.2987360   1.0722942  )
        17           I   tau(  17) = (   0.0000000   0.5000000   0.0000000  )
        18           I   tau(  18) = (   0.5000000   0.0000000   0.7148628  )
        19           I   tau(  19) = (   0.5000000   0.0000000   1.4297256  )
        20           I   tau(  20) = (   0.0000000   0.5000000   0.7148628  )

   Crystallographic axes

     site n.     atom                  positions (cryst. coord.)
         1           Cs  tau(   1) = (  0.0000000  0.0000000  0.2500000  )
         2           Cs  tau(   2) = (  0.5000000  0.5000000  0.7500000  )
         3           Cs  tau(   3) = (  0.0000000  0.0000000  0.7500000  )
         4           Cs  tau(   4) = (  0.5000000  0.5000000  0.2500000  )
         5           Sn  tau(   5) = (  0.0000000  0.0000000  0.0000000  )
         6           Sn  tau(   6) = (  0.5000000  0.5000000  0.5000000  )
         7           Sn  tau(   7) = (  0.0000000  0.0000000  0.5000000  )
         8           Sn  tau(   8) = (  0.5000000  0.5000000  0.0000000  )
         9           I   tau(   9) = (  0.2012640  0.2012640  0.7500000  )
        10           I   tau(  10) = (  0.7012640  0.7012640  0.2500000  )
        11           I   tau(  11) = (  0.2987360  0.2987360  0.2500000  )
        12           I   tau(  12) = (  0.7987360  0.7987360  0.7500000  )
        13           I   tau(  13) = (  0.7987360  0.2012640  0.2500000  )
        14           I   tau(  14) = (  0.2987360  0.7012640  0.7500000  )
        15           I   tau(  15) = (  0.2012640  0.7987360  0.2500000  )
        16           I   tau(  16) = (  0.7012640  0.2987360  0.7500000  )
        17           I   tau(  17) = (  0.0000000  0.5000000  0.0000000  )
        18           I   tau(  18) = (  0.5000000  0.0000000  0.5000000  )
        19           I   tau(  19) = (  0.5000000  0.0000000  1.0000000  )
        20           I   tau(  20) = (  0.0000000  0.5000000  0.5000000  )

     number of k points=     6
                       cart. coord. in units 2pi/alat
        k(    1) = (   0.0000000   0.0000000   0.0000000), wk =   0.0555556
        k(    2) = (   0.0000000   0.0000000  -0.3497175), wk =   0.0555556
        k(    3) = (   0.0000000   0.3333333   0.0000000), wk =   0.2222222
        k(    4) = (   0.0000000   0.3333333  -0.3497175), wk =   0.2222222
        k(    5) = (   0.3333333   0.3333333   0.0000000), wk =   0.2222222
        k(    6) = (   0.3333333   0.3333333  -0.3497175), wk =   0.2222222

                       cryst. coord.
        k(    1) = (   0.0000000   0.0000000   0.0000000), wk =   0.0555556
        k(    2) = (   0.0000000   0.0000000  -0.5000000), wk =   0.0555556
        k(    3) = (   0.0000000   0.3333333   0.0000000), wk =   0.2222222
        k(    4) = (   0.0000000   0.3333333  -0.5000000), wk =   0.2222222
        k(    5) = (   0.3333333   0.3333333   0.0000000), wk =   0.2222222
        k(    6) = (   0.3333333   0.3333333  -0.5000000), wk =   0.2222222

     Initial potential from superposition of free atoms

     starting charge  175.83607, renormalised to  176.00000
     Starting wfcs are  208 randomized atomic wfcs

     Self-consistent Calculation

     iteration #  1     ecut=    80.00 Ry     beta= 0.60
     Davidson diagonalization with overlap
     ethr =  1.00E-02,  avg # of iterations =  2.5

     Threshold (ethr) on eigenvalues was too large:
     Diagonalizing with lowered threshold

     Davidson diagonalization with overlap
     ethr =  8.06E-04,  avg # of iterations =  3.2

     total energy              =   -1572.52999823 Ry
     Harris-Foulkes estimate   =   -1573.53519965 Ry
     estimated scf accuracy    <       1.41130927 Ry

[...]

     iteration #  7     ecut=    80.00 Ry     beta= 0.60
     Davidson diagonalization with overlap
     c_bands:  4 eigenvalues not converged
     c_bands:  3 eigenvalues not converged
     c_bands:  4 eigenvalues not converged
     c_bands:  4 eigenvalues not converged
     c_bands:  4 eigenvalues not converged
     c_bands:  4 eigenvalues not converged
     ethr =  1.77E-04,  avg # of iterations = 20.0

[...]

     WARNING: integrated charge=   176.00256945, expected=   176.00000000

[...]

     End of self-consistent calculation

          k = 0.0000 0.0000 0.0000 ( 78943 PWs)   bands (ev):

   -19.5411 -19.5411 -19.5359 -19.5359 -19.4316 -19.4316 -19.4315 -19.4315
   -19.4315 -19.4315 -19.4314 -19.4314 -19.4173 -19.4173 -19.4173 -19.4173
   -19.3736 -19.3736 -19.3616 -19.3616 -19.2747 -19.2747 -19.2683 -19.2683
   -18.3950 -18.3950 -18.3950 -18.3950 -18.3949 -18.3949 -18.3949 -18.3949
   -18.3832 -18.3832 -18.3832 -18.3832 -18.3766 -18.3766 -18.3765 -18.3765
   -18.3763 -18.3763 -18.3763 -18.3763 -18.3467 -18.3467 -18.3462 -18.3462
   -11.2997 -11.2997 -11.2979 -11.2979 -11.2733 -11.2733 -11.2724 -11.2724
    -9.1941  -9.1941  -9.1837  -9.1837  -9.1632  -9.1632  -9.1613  -9.1613
    -7.6891  -7.6891  -7.6643  -7.6643  -7.6594  -7.6594  -7.6585  -7.6585
    -7.1983  -7.1983  -7.0709  -7.0709  -7.0304  -7.0304  -6.8038  -6.8038
[...]
        k(    5) = (   0.3333333   0.3333333   0.0000000), wk =   0.2222222
        k(    6) = (   0.3333333   0.3333333  -0.3497175), wk =   0.2222222

                       cryst. coord.
        k(    1) = (   0.0000000   0.0000000   0.0000000), wk =   0.0555556
        k(    2) = (   0.0000000   0.0000000  -0.5000000), wk =   0.0555556
        k(    3) = (   0.0000000   0.3333333   0.0000000), wk =   0.2222222
        k(    4) = (   0.0000000   0.3333333  -0.5000000), wk =   0.2222222
        k(    5) = (   0.3333333   0.3333333   0.0000000), wk =   0.2222222
        k(    6) = (   0.3333333   0.3333333  -0.5000000), wk =   0.2222222

     Initial potential from superposition of free atoms

     starting charge  175.83607, renormalised to  176.00000
     Starting wfcs are  208 randomized atomic wfcs

     Self-consistent Calculation

[...]

     iteration # 27     ecut=    80.00 Ry     beta= 0.60
     Davidson diagonalization with overlap
     c_bands:  1 eigenvalues not converged
     ethr =  8.22E-07,  avg # of iterations = 11.7

[...]

     total energy              =   -1574.40910846 Ry
     Harris-Foulkes estimate   =   -1574.40910846 Ry
     estimated scf accuracy    <          8.3E-09 Ry

     iteration # 53     ecut=    80.00 Ry     beta= 0.60
     Davidson diagonalization with overlap
     ethr =  4.73E-12,  avg # of iterations =  7.5

     End of self-consistent calculation

[...]

          k = 0.3333 0.3333-0.3497 ( 78768 PWs)   bands (ev):

   -20.4631 -20.4631 -20.4631 -20.4631 -20.4631 -20.4631 -20.4631 -20.4631
   -20.4591 -20.4591 -20.4591 -20.4591 -20.4591 -20.4591 -20.4590 -20.4590
   -19.4349 -19.4349 -19.4349 -19.4349 -19.4349 -19.4349 -19.4348 -19.4348
   -19.4179 -19.4179 -19.4179 -19.4179 -19.4179 -19.4179 -19.4178 -19.4178
   -19.4133 -19.4133 -19.4132 -19.4132 -19.4132 -19.4132 -19.4132 -19.4132
   -18.1409 -18.1409 -18.1409 -18.1409 -18.1372 -18.1372 -18.1372 -18.1372
    -8.9451  -8.9451  -8.9451  -8.9451  -8.8522  -8.8522  -8.8522  -8.8522
    -8.6115  -8.6115  -8.6115  -8.6115  -8.4834  -8.4834  -8.4834  -8.4834
    -8.1622  -8.1622  -8.1622  -8.1622  -8.1575  -8.1575  -8.1575  -8.1575
    -6.6654  -6.6654  -6.6653  -6.6653  -6.5844  -6.5844  -6.5844  -6.5844
    -5.5668  -5.5668  -5.5668  -5.5668  -5.3462  -5.3462  -5.3462  -5.3462
    -4.5812  -4.5812  -4.5812  -4.5812  -4.2553  -4.2553  -4.2553  -4.2553
    -3.4724  -3.4724  -3.4723  -3.4723  -3.4511  -3.4511  -3.4511  -3.4511
     0.4534   0.4534   0.4534   0.4534   0.7298   0.7298   0.7299   0.7299
     0.8590   0.8590   0.8590   0.8590   0.9403   0.9403   0.9403   0.9403
     0.9825   0.9825   0.9825   0.9825   1.2369   1.2369   1.2369   1.2369
     1.2418   1.2418   1.2418   1.2418   1.4728   1.4728   1.4728   1.4728
     1.6696   1.6696   1.6696   1.6696   1.6791   1.6791   1.6791   1.6791
     2.0636   2.0636   2.0636   2.0636   2.0755   2.0755   2.0755   2.0755
     2.3148   2.3148   2.3148   2.3148   2.3399   2.3399   2.3399   2.3399
     2.5195   2.5195   2.5195   2.5195   2.6014   2.6014   2.6014   2.6014
     2.7279   2.7279   2.7279   2.7279   2.9062   2.9062   2.9062   2.9062

     occupation numbers
     1.0000   1.0000   1.0000   1.0000   1.0000   1.0000   1.0000   1.0000
     1.0000   1.0000   1.0000   1.0000   1.0000   1.0000   1.0000   1.0000
     1.0000   1.0000   1.0000   1.0000   1.0000   1.0000   1.0000   1.0000
     1.0000   1.0000   1.0000   1.0000   1.0000   1.0000   1.0000   1.0000
     1.0000   1.0000   1.0000   1.0000   1.0000   1.0000   1.0000   1.0000
     1.0000   1.0000   1.0000   1.0000   1.0000   1.0000   1.0000   1.0000
     1.0000   1.0000   1.0000   1.0000   1.0000   1.0000   1.0000   1.0000
     1.0000   1.0000   1.0000   1.0000   1.0000   1.0000   1.0000   1.0000
     1.0000   1.0000   1.0000   1.0000   1.0000   1.0000   1.0000   1.0000
     1.0000   1.0000   1.0000   1.0000   1.0000   1.0000   1.0000   1.0000
     1.0000   1.0000   1.0000   1.0000   1.0000   1.0000   1.0000   1.0000
     1.0000   1.0000   1.0000   1.0000   1.0000   1.0000   1.0000   1.0000
     1.0000   1.0000   1.0000   1.0000   1.0000   1.0000   1.0000   1.0000
     1.0000   1.0000   1.0000   1.0000   1.0000   1.0000   1.0000   1.0000
     1.0000   1.0000   1.0000   1.0000   1.0000   1.0000   1.0000   1.0000
     1.0000   1.0000   1.0000   1.0000   1.0000   1.0000   1.0000   1.0000
     1.0000   1.0000   1.0000   1.0000   1.0000   1.0000   1.0000   1.0000
     1.0000   1.0000   1.0000   1.0000   1.0000   1.0000   1.0000   1.0000
     1.0000   1.0000   1.0000   1.0000   1.0000   1.0000   1.0000   1.0000
     1.0000   1.0000   1.0000   1.0000   1.0000   1.0000   1.0000   1.0000
     1.0000   1.0000   1.0000   1.0000   1.0000   1.0000   1.0000   1.0000
     1.0000   1.0000   1.0000   1.0000   1.0000   1.0000   1.0000   1.0000

     highest occupied level (ev):     3.1900

!    total energy              =   -1574.40910846 Ry
     Harris-Foulkes estimate   =   -1574.40910846 Ry
     estimated scf accuracy    <          2.0E-09 Ry

     The total energy is the sum of the following terms:

     one-electron contribution =    -467.93365531 Ry
     hartree contribution      =     305.37570734 Ry
     xc contribution           =    -776.72874675 Ry
     ewald contribution        =    -635.12241374 Ry

     convergence has been achieved in  53 iterations

     Forces acting on atoms (cartesian axes, Ry/au):

     atom    1 type  3   force =     0.00000000    0.00000000    0.00000941
     atom    2 type  3   force =     0.00000000    0.00000000    0.00000462
     atom    3 type  3   force =     0.00000000    0.00000000   -0.00000941
     atom    4 type  3   force =     0.00000000    0.00000000   -0.00000462
     atom    5 type  1   force =     0.00000000    0.00000000    0.00000000
     atom    6 type  1   force =     0.00000000    0.00000000    0.00000000
     atom    7 type  1   force =     0.00000000    0.00000000    0.00000000
     atom    8 type  1   force =     0.00000000    0.00000000    0.00000000
     atom    9 type  2   force =     0.00000906    0.00000906   -0.00000367
     atom   10 type  2   force =     0.00000156    0.00000156    0.00000436
     atom   11 type  2   force =    -0.00000156   -0.00000156    0.00000436
     atom   12 type  2   force =    -0.00000906   -0.00000906   -0.00000367
     atom   13 type  2   force =    -0.00000906    0.00000906    0.00000367
     atom   14 type  2   force =    -0.00000156    0.00000156   -0.00000436
     atom   15 type  2   force =     0.00000906   -0.00000906    0.00000367
     atom   16 type  2   force =     0.00000156   -0.00000156   -0.00000436
     atom   17 type  2   force =     0.00000000    0.00000000    0.00000000
     atom   18 type  2   force =     0.00000000    0.00000000    0.00000000
     atom   19 type  2   force =     0.00000000    0.00000000    0.00000000
     atom   20 type  2   force =     0.00000000    0.00000000    0.00000000
     The non-local contrib.  to forces
     atom    1 type  3   force =     0.00000000    0.00000000    0.00002870
     atom    2 type  3   force =     0.00000000    0.00000000   -0.00001540
     atom    3 type  3   force =     0.00000000    0.00000000   -0.00002870
     atom    4 type  3   force =     0.00000000    0.00000000    0.00001540
     atom    5 type  1   force =     0.00000000    0.00000000    0.00000000
     atom    6 type  1   force =     0.00000000    0.00000000    0.00000000
     atom    7 type  1   force =     0.00000000    0.00000000    0.00000000
     atom    8 type  1   force =     0.00000000    0.00000000    0.00000000
     atom    9 type  2   force =     0.00000189    0.00000189   -0.00000282
     atom   10 type  2   force =    -0.00000212   -0.00000212    0.00000284
     atom   11 type  2   force =     0.00000212    0.00000212    0.00000284
     atom   12 type  2   force =    -0.00000189   -0.00000189   -0.00000282
     atom   13 type  2   force =    -0.00000189    0.00000189    0.00000282
     atom   14 type  2   force =     0.00000212   -0.00000212   -0.00000284
     atom   15 type  2   force =     0.00000189   -0.00000189    0.00000282
     atom   16 type  2   force =    -0.00000212    0.00000212   -0.00000284
     atom   17 type  2   force =     0.00000000    0.00000000    0.00000000
     atom   18 type  2   force =     0.00000000    0.00000000    0.00000000
     atom   19 type  2   force =     0.00000000    0.00000000    0.00000000
     atom   20 type  2   force =     0.00000000    0.00000000    0.00000000
     The ionic contribution  to forces
     atom    1 type  3   force =    -0.00000000   -0.00000000   -0.00014538
     atom    2 type  3   force =     0.00000000    0.00000000    0.00042357
     atom    3 type  3   force =    -0.00000000   -0.00000000    0.00014538
     atom    4 type  3   force =     0.00000000    0.00000000   -0.00042357
     atom    5 type  1   force =    -0.00000000   -0.00000000   -0.00000000
     atom    6 type  1   force =     0.00000000    0.00000000    0.00000000
     atom    7 type  1   force =     0.00000000   -0.00000000    0.00000000
     atom    8 type  1   force =     0.00000000    0.00000000   -0.00000000
     atom    9 type  2   force =     0.00017366    0.00017366    0.00013357
     atom   10 type  2   force =     0.00000923    0.00000923   -0.00013525
     atom   11 type  2   force =    -0.00000923   -0.00000923   -0.00013525
     atom   12 type  2   force =    -0.00017366   -0.00017366    0.00013357
     atom   13 type  2   force =    -0.00017366    0.00017366   -0.00013357
     atom   14 type  2   force =    -0.00000923    0.00000923    0.00013525
     atom   15 type  2   force =     0.00017366   -0.00017366   -0.00013357
     atom   16 type  2   force =     0.00000923   -0.00000923    0.00013525
     atom   17 type  2   force =     0.00000000   -0.00000000   -0.00000000
     atom   18 type  2   force =     0.00000000   -0.00000000    0.00000000
     atom   19 type  2   force =    -0.00000000    0.00000000    0.00000000
     atom   20 type  2   force =    -0.00000000    0.00000000    0.00000000
     The local contribution  to forces
     atom    1 type  3   force =     0.00000000    0.00000000    0.00015175
     atom    2 type  3   force =     0.00000000    0.00000000   -0.00040793
     atom    3 type  3   force =     0.00000000    0.00000000   -0.00015175
     atom    4 type  3   force =     0.00000000    0.00000000    0.00040793
     atom    5 type  1   force =    -0.00000000   -0.00000000    0.00000000
     atom    6 type  1   force =     0.00000000    0.00000000    0.00000000
     atom    7 type  1   force =    -0.00000000    0.00000000    0.00000000
     atom    8 type  1   force =     0.00000000    0.00000000    0.00000000
     atom    9 type  2   force =    -0.00015643   -0.00015643   -0.00013576
     atom   10 type  2   force =    -0.00001378   -0.00001378    0.00013807
     atom   11 type  2   force =     0.00001378    0.00001378    0.00013807
     atom   12 type  2   force =     0.00015643    0.00015643   -0.00013576
     atom   13 type  2   force =     0.00015643   -0.00015643    0.00013576
     atom   14 type  2   force =     0.00001378   -0.00001378   -0.00013807
     atom   15 type  2   force =    -0.00015643    0.00015643    0.00013576
     atom   16 type  2   force =    -0.00001378    0.00001378   -0.00013807
     atom   17 type  2   force =    -0.00000000   -0.00000000    0.00000000
     atom   18 type  2   force =    -0.00000000   -0.00000000    0.00000000
     atom   19 type  2   force =     0.00000000   -0.00000000    0.00000000
     atom   20 type  2   force =    -0.00000000   -0.00000000    0.00000000
     The core correction contribution to forces
     atom    1 type  3   force =     0.00000000    0.00000000   -0.00000209
     atom    2 type  3   force =    -0.00000000   -0.00000000    0.00000136
     atom    3 type  3   force =     0.00000000    0.00000000    0.00000209
     atom    4 type  3   force =    -0.00000000   -0.00000000   -0.00000136
     atom    5 type  1   force =     0.00000000    0.00000000    0.00000000
     atom    6 type  1   force =     0.00000000    0.00000000    0.00000000
     atom    7 type  1   force =    -0.00000000    0.00000000    0.00000000
     atom    8 type  1   force =     0.00000000    0.00000000    0.00000000
     atom    9 type  2   force =    -0.00000113   -0.00000113   -0.00000174
     atom   10 type  2   force =    -0.00000110   -0.00000110    0.00000165
     atom   11 type  2   force =     0.00000110    0.00000110    0.00000165
     atom   12 type  2   force =     0.00000113    0.00000113   -0.00000174
     atom   13 type  2   force =     0.00000113   -0.00000113    0.00000174
     atom   14 type  2   force =     0.00000110   -0.00000110   -0.00000165
     atom   15 type  2   force =    -0.00000113    0.00000113    0.00000174
     atom   16 type  2   force =    -0.00000110    0.00000110   -0.00000165
     atom   17 type  2   force =    -0.00000000    0.00000000   -0.00000000
     atom   18 type  2   force =    -0.00000000   -0.00000000   -0.00000000
     atom   19 type  2   force =     0.00000000   -0.00000000   -0.00000000
     atom   20 type  2   force =     0.00000000   -0.00000000   -0.00000000
     The Hubbard contrib.    to forces
     atom    1 type  3   force =     0.00000000    0.00000000    0.00000000
     atom    2 type  3   force =     0.00000000    0.00000000    0.00000000
     atom    3 type  3   force =     0.00000000    0.00000000    0.00000000
     atom    4 type  3   force =     0.00000000    0.00000000    0.00000000
     atom    5 type  1   force =     0.00000000    0.00000000    0.00000000
     atom    6 type  1   force =     0.00000000    0.00000000    0.00000000
     atom    7 type  1   force =     0.00000000    0.00000000    0.00000000
     atom    8 type  1   force =     0.00000000    0.00000000    0.00000000
     atom    9 type  2   force =     0.00000000    0.00000000    0.00000000
     atom   10 type  2   force =     0.00000000    0.00000000    0.00000000
     atom   11 type  2   force =     0.00000000    0.00000000    0.00000000
     atom   12 type  2   force =     0.00000000    0.00000000    0.00000000
     atom   13 type  2   force =     0.00000000    0.00000000    0.00000000
     atom   14 type  2   force =     0.00000000    0.00000000    0.00000000
     atom   15 type  2   force =     0.00000000    0.00000000    0.00000000
     atom   16 type  2   force =     0.00000000    0.00000000    0.00000000
     atom   17 type  2   force =     0.00000000    0.00000000    0.00000000
     atom   18 type  2   force =     0.00000000    0.00000000    0.00000000
     atom   19 type  2   force =     0.00000000    0.00000000    0.00000000
     atom   20 type  2   force =     0.00000000    0.00000000    0.00000000
     The SCF correction term to forces
     atom    1 type  3   force =     0.00000000    0.00000000   -0.00002357
     atom    2 type  3   force =    -0.00000000    0.00000000    0.00000301
     atom    3 type  3   force =     0.00000000    0.00000000    0.00002357
     atom    4 type  3   force =    -0.00000000    0.00000000   -0.00000301
     atom    5 type  1   force =    -0.00000000   -0.00000000   -0.00000000
     atom    6 type  1   force =    -0.00000000    0.00000000   -0.00000000
     atom    7 type  1   force =    -0.00000000   -0.00000000    0.00000000
     atom    8 type  1   force =     0.00000000    0.00000000   -0.00000000
     atom    9 type  2   force =    -0.00000894   -0.00000894    0.00000308
     atom   10 type  2   force =     0.00000933    0.00000933   -0.00000295
     atom   11 type  2   force =    -0.00000933   -0.00000933   -0.00000295
     atom   12 type  2   force =     0.00000894    0.00000894    0.00000308
     atom   13 type  2   force =     0.00000894   -0.00000894   -0.00000308
     atom   14 type  2   force =    -0.00000933    0.00000933    0.00000295
     atom   15 type  2   force =    -0.00000894    0.00000894   -0.00000308
     atom   16 type  2   force =     0.00000933   -0.00000933    0.00000295
     atom   17 type  2   force =    -0.00000000    0.00000000   -0.00000000
     atom   18 type  2   force =    -0.00000000   -0.00000000   -0.00000000
     atom   19 type  2   force =     0.00000000   -0.00000000   -0.00000000
     atom   20 type  2   force =    -0.00000000   -0.00000000   -0.00000000

     Total force =     0.000032     Total SCF correction =     0.000050
     SCF correction compared to forces is large: reduce conv_thr to get better values

     Computing stress (Cartesian axis) and pressure

     Message from routine stres:
     noncollinear stress + GGA not implemented

     Writing output data file CsSnI3.save/

     General routines

     Parallel routines

      13h

   This run was terminated on:  13:42:11  15Feb2021

   JOB DONE.