     Program PWSCF v.6.7MaX starts on 14Jan2021 at 15:33:16

     R & G space division:  proc/nbgrp/npool/nimage =      19
     Waiting for input...
     Reading input from standard input

     Current dimensions of program PWSCF are:
     Max number of different atomic species (ntypx) = 10
     Max number of k-points (npk) =  40000
     Max angular momentum in pseudopotentials (lmaxx) =  3
     file Sn.pbe-dn-kjpaw_psl.1.0.0.UPF: wavefunction(s)  5S 5P 4D renormalized
     file I.pbe-n-kjpaw_psl.1.0.0.UPF: wavefunction(s)  5S renormalized

     Subspace diagonalization in iterative solution of the eigenvalue problem:
     a serial algorithm will be used

     Message from routine setup:
     using ibrav=0 with symmetry is DISCOURAGED, use correct ibrav instead

     Title:
     SnI4un

     bravais-lattice index     =            0
     lattice parameter (alat)  =      13.7130  a.u.
     unit-cell volume          =    2578.6558 (a.u.)^3
     number of atoms/cell      =            5
     number of atomic types    =            2
     number of electrons       =        42.00
     number of Kohn-Sham states=           21
     kinetic-energy cutoff     =      70.0000  Ry
     charge density cutoff     =     280.0000  Ry
     scf convergence threshold =      1.0E-06
     mixing beta               =       0.7000
     number of iterations used =            8  plain     mixing
     Exchange-correlation= SLA  PW   PBX  PBC
                           (   1   4   3   4   0   0   0)

     celldm(1)=  13.712957  celldm(2)=   0.000000  celldm(3)=   0.000000
     celldm(4)=   0.000000  celldm(5)=   0.000000  celldm(6)=   0.000000

     crystal axes: (cart. coord. in units of alat)
               a(1) = (   1.000000   0.000000   0.000000 )
               a(2) = (   0.000000   1.000000   0.000000 )
               a(3) = (   0.000000   0.000000   1.000000 )

     reciprocal axes: (cart. coord. in units 2 pi/alat)
               b(1) = (  1.000000  0.000000  0.000000 )
               b(2) = (  0.000000  1.000000  0.000000 )
               b(3) = (  0.000000  0.000000  1.000000 )

     PseudoPot. # 1 for Sn read from file:
     ../../../pseudo/Sn.pbe-dn-kjpaw_psl.1.0.0.UPF
     MD5 check sum: 67f11dec737d427557dc41ea34975807
     Pseudo is Projector augmented-wave + core cor, Zval = 14.0
     Generated using &quot;atomic&quot; code by A. Dal Corso  v.6.3
     Shape of augmentation charge: PSQ
     Using radial grid of 1243 points,  6 beta functions with:
                l(1) =   0
                l(2) =   0
                l(3) =   1
                l(4) =   1
                l(5) =   2
                l(6) =   2
     Q(r) pseudized with 0 coefficients

     PseudoPot. # 2 for I  read from file:
     ../../../pseudo/I.pbe-n-kjpaw_psl.1.0.0.UPF
     MD5 check sum: cd3d296c3308a581e1559a0c8a554cb5
     Pseudo is Projector augmented-wave + core cor, Zval =  7.0
     Generated using &quot;atomic&quot; code by A. Dal Corso  v.6.3
     Shape of augmentation charge: PSQ
     Using radial grid of 1247 points,  6 beta functions with:
                l(1) =   0
                l(2) =   0
                l(3) =   1
                l(4) =   1
                l(5) =   2
                l(6) =   2
     Q(r) pseudized with 0 coefficients

     atomic species   valence    mass     pseudopotential
        Sn            14.00   118.70000     Sn( 1.00)
        I              7.00   126.90000     I ( 1.00)

     24 Sym. Ops. (no inversion) found

                                    s                        frac. trans.

      isym =  1     identity

 cryst.   s( 1) = (     1          0          0      )
                  (     0          1          0      )
                  (     0          0          1      )

 cart.    s( 1) = (  1.0000000  0.0000000  0.0000000 )
                  (  0.0000000  1.0000000  0.0000000 )
                  (  0.0000000  0.0000000  1.0000000 )

      isym =  2     180 deg rotation - cart. axis [0,0,1]

[...]

 cryst.   s( 9) = (     0          1          0      )
                  (     0          0          1      )
                  (     1          0          0      )

 cart.    s( 9) = (  0.0000000  0.0000000  1.0000000 )
                  (  1.0000000  0.0000000  0.0000000 )
                  (  0.0000000  1.0000000  0.0000000 )

[...]

 cryst.   s(10) = (     0         -1          0      )
                  (     0          0         -1      )
                  (     1          0          0      )

 cart.    s(10) = (  0.0000000  0.0000000  1.0000000 )
                  ( -1.0000000  0.0000000  0.0000000 )
                  (  0.0000000 -1.0000000  0.0000000 )

[...]

      isym = 12     120 deg rotation - cart. axis [-1,-1,1]

[...]

      isym = 13     inv. 180 deg rotation - cart. axis [1,1,0]

[...]

      isym = 24     inv.  90 deg rotation - cart. axis [1,0,0]

 cryst.   s(24) = (    -1          0          0      )
                  (     0          0         -1      )
                  (     0          1          0      )

 cart.    s(24) = ( -1.0000000  0.0000000  0.0000000 )
                  (  0.0000000  0.0000000  1.0000000 )
                  (  0.0000000 -1.0000000  0.0000000 )

   Cartesian axes

     site n.     atom                  positions (alat units)
         1           Sn  tau(   1) = (   0.0000000   0.0000000   0.0000000  )
         2           I   tau(   2) = (   0.2339030   0.7660970   0.7660970  )
         3           I   tau(   3) = (   0.7660970   0.2339030   0.7660970  )
         4           I   tau(   4) = (   0.7660970   0.7660970   0.2339030  )
         5           I   tau(   5) = (   0.2339030   0.2339030   0.2339030  )

   Crystallographic axes

     site n.     atom                  positions (cryst. coord.)
         1           Sn  tau(   1) = (  0.0000000  0.0000000  0.0000000  )
         2           I   tau(   2) = (  0.2339030  0.7660970  0.7660970  )
         3           I   tau(   3) = (  0.7660970  0.2339030  0.7660970  )
         4           I   tau(   4) = (  0.7660970  0.7660970  0.2339030  )
         5           I   tau(   5) = (  0.2339030  0.2339030  0.2339030  )

     number of k points=    10
                       cart. coord. in units 2pi/alat
        k(    1) = (   0.0000000   0.0000000   0.0000000), wk =   0.0312500
        k(    2) = (   0.0000000   0.0000000   0.2500000), wk =   0.1875000
        k(    3) = (   0.0000000   0.0000000  -0.5000000), wk =   0.0937500
        k(    4) = (   0.0000000   0.2500000   0.2500000), wk =   0.3750000
        k(    5) = (   0.0000000   0.2500000  -0.5000000), wk =   0.3750000
        k(    6) = (   0.0000000  -0.5000000  -0.5000000), wk =   0.0937500
        k(    7) = (   0.2500000   0.2500000   0.2500000), wk =   0.2500000
        k(    8) = (   0.2500000   0.2500000  -0.5000000), wk =   0.3750000
        k(    9) = (   0.2500000  -0.5000000  -0.5000000), wk =   0.1875000
        k(   10) = (  -0.5000000  -0.5000000  -0.5000000), wk =   0.0312500

                       cryst. coord.
        k(    1) = (   0.0000000   0.0000000   0.0000000), wk =   0.0312500
        k(    2) = (   0.0000000   0.0000000   0.2500000), wk =   0.1875000
        k(    3) = (   0.0000000   0.0000000  -0.5000000), wk =   0.0937500
        k(    4) = (   0.0000000   0.2500000   0.2500000), wk =   0.3750000
        k(    5) = (   0.0000000   0.2500000  -0.5000000), wk =   0.3750000
        k(    6) = (   0.0000000  -0.5000000  -0.5000000), wk =   0.0937500
        k(    7) = (   0.2500000   0.2500000   0.2500000), wk =   0.2500000
        k(    8) = (   0.2500000   0.2500000  -0.5000000), wk =   0.3750000
        k(    9) = (   0.2500000  -0.5000000  -0.5000000), wk =   0.1875000
        k(   10) = (  -0.5000000  -0.5000000  -0.5000000), wk =   0.0312500

     Initial potential from superposition of free atoms

     starting charge   41.99831, renormalised to   42.00000
     Starting wfcs are   25 randomized atomic wfcs
     Checking if some PAW data can be deallocated...

     Self-consistent Calculation

     iteration #  1     ecut=    70.00 Ry     beta= 0.70
     Davidson diagonalization with overlap
     ethr =  1.00E-02,  avg # of iterations =  1.0

     Threshold (ethr) on eigenvalues was too large:
     Diagonalizing with lowered threshold

     Davidson diagonalization with overlap
     ethr =  5.04E-04,  avg # of iterations =  2.0

     total energy              =   -1957.70927196 Ry
     estimated scf accuracy    <       0.18682555 Ry

[...]

     total energy              =   -1957.78988568 Ry
     estimated scf accuracy    <       0.00000240 Ry

     iteration # 10     ecut=    70.00 Ry     beta= 0.70
     Davidson diagonalization with overlap
     ethr =  5.72E-09,  avg # of iterations =  4.0

     End of self-consistent calculation

          k = 0.0000 0.0000 0.0000 ( 25533 PWs)   bands (ev):

   -22.8868 -22.8868 -22.8868 -22.8680 -22.8680 -12.7139 -12.3720 -12.3720
   -12.3720  -7.5665  -3.4774  -3.4774  -3.4774  -2.3456  -2.3456  -1.8103
    -1.8103  -1.8103  -1.7262  -1.7262  -1.7262

     occupation numbers
     1.0000   1.0000   1.0000   1.0000   1.0000   1.0000   1.0000   1.0000
     1.0000   1.0000   1.0000   1.0000   1.0000   1.0000   1.0000   1.0000
     1.0000   1.0000   1.0000   1.0000   1.0000

[...]

          k = 0.2500-0.5000-0.5000 ( 25460 PWs)   bands (ev):

[...]

          k =-0.5000-0.5000-0.5000 ( 25576 PWs)   bands (ev):

   -22.8868 -22.8868 -22.8868 -22.8681 -22.8681 -12.6572 -12.3920 -12.3920
   -12.3920  -7.5695  -3.5605  -3.5605  -3.5605  -2.1971  -2.1971  -2.1971
    -1.7451  -1.7451  -1.6377  -1.6377  -1.6377

     occupation numbers
     1.0000   1.0000   1.0000   1.0000   1.0000   1.0000   1.0000   1.0000
     1.0000   1.0000   1.0000   1.0000   1.0000   1.0000   1.0000   1.0000
     1.0000   1.0000   1.0000   1.0000   1.0000

     highest occupied level (ev):    -1.6095

!    total energy              =   -1957.78988600 Ry

     total all-electron energy =    -69286.407447 Ry
     estimated scf accuracy    <       0.00000008 Ry

     The total energy is the sum of the following terms:
     one-electron contribution =    -170.17843905 Ry
     hartree contribution      =      99.93839283 Ry
     xc contribution           =    -110.66939194 Ry
     ewald contribution        =    -110.04903772 Ry
     one-center paw contrib.   =   -1666.83141012 Ry
      -> PAW hartree energy AE =     107.49738034 Ry
      -> PAW hartree energy PS =    -106.73505392 Ry
      -> PAW xc energy AE      =    -328.88616515 Ry
      -> PAW xc energy PS      =      47.18901044 Ry
      -> total E_H with PAW    =     100.70071925 Ry
      -> total E_XC with PAW   =    -392.36654664 Ry

     convergence has been achieved in  10 iterations

     Forces acting on atoms (cartesian axes, Ry/au):

     atom    1 type  1   force =     0.00000000    0.00000000    0.00000000
     atom    2 type  2   force =    -0.02921265    0.02921265    0.02921265
     atom    3 type  2   force =     0.02921265   -0.02921265    0.02921265
     atom    4 type  2   force =     0.02921265    0.02921265   -0.02921265
     atom    5 type  2   force =    -0.02921265   -0.02921265   -0.02921265
     The non-local contrib.  to forces
     atom    1 type  1   force =     0.00000000    0.00000000    0.00000000
     atom    2 type  2   force =    -0.09378308    0.09378308    0.09378308
     atom    3 type  2   force =     0.09378308   -0.09378308    0.09378308
     atom    4 type  2   force =     0.09378308    0.09378308   -0.09378308
     atom    5 type  2   force =    -0.09378308   -0.09378308   -0.09378308
     The ionic contribution  to forces
     atom    1 type  1   force =    -0.00000000   -0.00000000    0.00000000
     atom    2 type  2   force =     3.22132870   -3.22132870   -3.22132870
     atom    3 type  2   force =    -3.22132870    3.22132870   -3.22132870
     atom    4 type  2   force =    -3.22132870   -3.22132870    3.22132870
     atom    5 type  2   force =     3.22132870    3.22132870    3.22132870
     The local contribution  to forces
     atom    1 type  1   force =     0.00000000    0.00000000   -0.00000000
     atom    2 type  2   force =    -3.16919062    3.16919062    3.16919062
     atom    3 type  2   force =     3.16919062   -3.16919062    3.16919062
     atom    4 type  2   force =     3.16919062    3.16919062   -3.16919062
     atom    5 type  2   force =    -3.16919062   -3.16919062   -3.16919062
     The core correction contribution to forces
     atom    1 type  1   force =     0.00000000    0.00000000    0.00000000
     atom    2 type  2   force =     0.01256593   -0.01256593   -0.01256593
     atom    3 type  2   force =    -0.01256593    0.01256593   -0.01256593
     atom    4 type  2   force =    -0.01256593   -0.01256593    0.01256593
     atom    5 type  2   force =     0.01256593    0.01256593    0.01256593
     The Hubbard contrib.    to forces
     atom    1 type  1   force =     0.00000000    0.00000000    0.00000000
     atom    2 type  2   force =     0.00000000    0.00000000    0.00000000
     atom    3 type  2   force =     0.00000000    0.00000000    0.00000000
     atom    4 type  2   force =     0.00000000    0.00000000    0.00000000
     atom    5 type  2   force =     0.00000000    0.00000000    0.00000000
     The SCF correction term to forces
     atom    1 type  1   force =    -0.00000000    0.00000000    0.00000000
     atom    2 type  2   force =    -0.00013359    0.00013359    0.00013359
     atom    3 type  2   force =     0.00013359   -0.00013359    0.00013359
     atom    4 type  2   force =     0.00013359    0.00013359   -0.00013359
     atom    5 type  2   force =    -0.00013359   -0.00013359   -0.00013359

     Total force =     0.101196     Total SCF correction =     0.000463

     Computing stress (Cartesian axis) and pressure

          total   stress  (Ry/bohr**3)                   (kbar)     P=      -22.14
  -0.00015053   0.00000000   0.00000000          -22.14        0.00        0.00
   0.00000000  -0.00015053   0.00000000            0.00      -22.14        0.00
   0.00000000   0.00000000  -0.00015053            0.00        0.00      -22.14

     kinetic stress (kbar)   3113.46      0.00      0.00
                                0.00   3113.46      0.00
                                0.00      0.00   3113.46

     local   stress (kbar)  -2527.91      0.00     -0.00
                                0.00  -2527.91     -0.00
                               -0.00     -0.00  -2527.91

     nonloc. stress (kbar)    610.72      0.00      0.00
                                0.00    610.72      0.00
                                0.00      0.00    610.72

     hartree stress (kbar)   1900.40     -0.00     -0.00
                               -0.00   1900.40     -0.00
                               -0.00     -0.00   1900.40

     exc-cor stress (kbar)   3211.78      0.00      0.00
                                0.00   3211.78      0.00
                                0.00      0.00   3211.78

     corecor stress (kbar)  -4237.93     -0.00     -0.00
                               -0.00  -4237.93     -0.00
                               -0.00     -0.00  -4237.93

     ewald   stress (kbar)  -2092.66     -0.00     -0.00
                               -0.00  -2092.66     -0.00
                               -0.00     -0.00  -2092.66

     hubbard stress (kbar)      0.00      0.00      0.00
                                0.00      0.00      0.00
                                0.00      0.00      0.00

     DFT-D   stress (kbar)      0.00      0.00      0.00
                                0.00      0.00      0.00
                                0.00      0.00      0.00

     XDM     stress (kbar)      0.00      0.00      0.00
                                0.00      0.00      0.00
                                0.00      0.00      0.00

     dft-nl  stress (kbar)      0.00      0.00      0.00
                                0.00      0.00      0.00
                                0.00      0.00      0.00

     TS-vdW  stress (kbar)      0.00      0.00      0.00
                                0.00      0.00      0.00
                                0.00      0.00      0.00

     Writing output data file ./out/SnI4un.save/

     General routines

     Parallel routines

     PAW routines

   This run was terminated on:  15:34: 7  14Jan2021

   JOB DONE.