     Program PWSCF v.6.7MaX starts on 15Jan2021 at 11: 1:28

     R & G space division:  proc/nbgrp/npool/nimage =      32
     Waiting for input...
     Reading input from standard input

     Current dimensions of program PWSCF are:
     Max number of different atomic species (ntypx) = 10
     Max number of k-points (npk) =  40000
     Max angular momentum in pseudopotentials (lmaxx) =  3
     file Sn.pbe-dn-kjpaw_psl.1.0.0.UPF: wavefunction(s)  5S 5P 4D renormalized
     file I.pbe-n-kjpaw_psl.1.0.0.UPF: wavefunction(s)  5S renormalized
     file Cs.pbe-spn-kjpaw_psl.1.0.0.UPF: wavefunction(s)  5S 6S renormalized

     Subspace diagonalization in iterative solution of the eigenvalue problem:
     a serial algorithm will be used

     Message from routine setup:
     using ibrav=0 with symmetry is DISCOURAGED, use correct ibrav instead

     Title:
     CsSnI3

     bravais-lattice index     =            0
     lattice parameter (alat)  =       9.1317  a.u.
     unit-cell volume          =    6370.5385 (a.u.)^3
     number of atoms/cell      =           20
     number of atomic types    =            3
     number of electrons       =       176.00
     number of Kohn-Sham states=           89
     kinetic-energy cutoff     =      50.0000  Ry
     charge density cutoff     =     200.0000  Ry
     scf convergence threshold =      1.0E-06
     mixing beta               =       0.7000
     number of iterations used =            8  plain     mixing
     Exchange-correlation= SLA  PW   PBX  PBC
                           (   1   4   3   4   0   0   0)

     celldm(1)=   9.131705  celldm(2)=   0.000000  celldm(3)=   0.000000
     celldm(4)=   0.000000  celldm(5)=   0.000000  celldm(6)=   0.000000

     crystal axes: (cart. coord. in units of alat)
               a(1) = (   1.000000   0.000000   0.000000 )
               a(2) = (   0.000000   2.227728   0.000000 )
               a(3) = (   0.000000   0.000000   3.755420 )

     reciprocal axes: (cart. coord. in units 2 pi/alat)
               b(1) = (  1.000000  0.000000  0.000000 )
               b(2) = (  0.000000  0.448888  0.000000 )
               b(3) = (  0.000000  0.000000  0.266282 )

     PseudoPot. # 1 for Sn read from file:
     ../../../pseudo/Sn.pbe-dn-kjpaw_psl.1.0.0.UPF
     MD5 check sum: 67f11dec737d427557dc41ea34975807
     Pseudo is Projector augmented-wave + core cor, Zval = 14.0
     Generated using &quot;atomic&quot; code by A. Dal Corso  v.6.3
     Shape of augmentation charge: PSQ
     Using radial grid of 1243 points,  6 beta functions with:
                l(1) =   0
                l(2) =   0
                l(3) =   1
                l(4) =   1
                l(5) =   2
                l(6) =   2
     Q(r) pseudized with 0 coefficients

     PseudoPot. # 2 for I  read from file:
     ../../../pseudo/I.pbe-n-kjpaw_psl.1.0.0.UPF
     MD5 check sum: cd3d296c3308a581e1559a0c8a554cb5
     Pseudo is Projector augmented-wave + core cor, Zval =  7.0
     Generated using &quot;atomic&quot; code by A. Dal Corso  v.6.3
     Shape of augmentation charge: PSQ
     Using radial grid of 1247 points,  6 beta functions with:
                l(1) =   0
                l(2) =   0
                l(3) =   1
                l(4) =   1
                l(5) =   2
                l(6) =   2
     Q(r) pseudized with 0 coefficients

     PseudoPot. # 3 for Cs read from file:
     ../../../pseudo/Cs.pbe-spn-kjpaw_psl.1.0.0.UPF
     MD5 check sum: b82c75cc2e1f4ff73b6412cffeb9c584
     Pseudo is Projector augmented-wave + core cor, Zval =  9.0
     Generated using &quot;atomic&quot; code by A. Dal Corso  v.6.4.1
     Shape of augmentation charge: PSQ
     Using radial grid of 1251 points,  9 beta functions with:
                l(1) =   0
                l(2) =   0
                l(3) =   0
                l(4) =   1
                l(5) =   1
                l(6) =   2
                l(7) =   2
                l(8) =   3
                l(9) =   3
     Q(r) pseudized with 0 coefficients

     atomic species   valence    mass     pseudopotential
        Sn            14.00   118.70000     Sn( 1.00)
        I              7.00   126.90000     I ( 1.00)
        Cs             9.00   132.90000     Cs( 1.00)

      8 Sym. Ops., with inversion, found ( 6 have fractional translation)

                                    s                        frac. trans.

      isym =  1     identity

 cryst.   s( 1) = (     1          0          0      )
                  (     0          1          0      )
                  (     0          0          1      )

 cart.    s( 1) = (  1.0000000  0.0000000  0.0000000 )
                  (  0.0000000  1.0000000  0.0000000 )
                  (  0.0000000  0.0000000  1.0000000 )

      isym =  2     180 deg rotation - cart. axis [0,0,1]

 cryst.   s( 2) = (    -1          0          0      )    f =(  0.0000000 )
                  (     0         -1          0      )       (  0.5000000 )
                  (     0          0          1      )       (  0.5000000 )

 cart.    s( 2) = ( -1.0000000  0.0000000  0.0000000 )    f =(  0.0000000 )
                  (  0.0000000 -1.0000000  0.0000000 )       (  1.1138638 )
                  (  0.0000000  0.0000000  1.0000000 )       (  1.8777098 )

[...]

      isym =  4     180 deg rotation - cart. axis [1,0,0]

[...]

      isym =  5     inversion

 cryst.   s( 5) = (    -1          0          0      )
                  (     0         -1          0      )
                  (     0          0         -1      )

 cart.    s( 5) = ( -1.0000000  0.0000000  0.0000000 )
                  (  0.0000000 -1.0000000  0.0000000 )
                  (  0.0000000  0.0000000 -1.0000000 )

      isym =  6     inv. 180 deg rotation - cart. axis [0,0,1]

[...]

      isym =  8     inv. 180 deg rotation - cart. axis [1,0,0]

 cryst.   s( 8) = (    -1          0          0      )    f =(  0.5000000 )
                  (     0          1          0      )       (  0.0000000 )
                  (     0          0          1      )       (  0.0000000 )

 cart.    s( 8) = ( -1.0000000  0.0000000  0.0000000 )    f =(  0.5000000 )
                  (  0.0000000  1.0000000  0.0000000 )       (  0.0000000 )
                  (  0.0000000  0.0000000  1.0000000 )       (  0.0000000 )

   Cartesian axes

     site n.     atom                  positions (alat units)
         1           Cs  tau(   1) = (   0.2500000   0.1859640   2.5168147  )
         2           Cs  tau(   2) = (   0.7500000   2.0417636   1.2386050  )
         3           Cs  tau(   3) = (   0.2500000   1.2998278   3.1163149  )
         4           Cs  tau(   4) = (   0.7500000   0.9278998   0.6391048  )
         5           Sn  tau(   5) = (   0.2500000   0.7615710   1.6485466  )
         6           Sn  tau(   6) = (   0.7500000   1.4661567   2.1068731  )
         7           Sn  tau(   7) = (   0.2500000   1.8754348   0.2291632  )
         8           Sn  tau(   8) = (   0.7500000   0.3522928   3.5262565  )
         9           I   tau(   9) = (   0.7500000   0.0581437   0.4202578  )
        10           I   tau(  10) = (   0.2500000   2.1695839   3.3351619  )
        11           I   tau(  11) = (   0.7500000   1.1720075   1.4574521  )
        12           I   tau(  12) = (   0.2500000   1.0557201   2.2979676  )
        13           I   tau(  13) = (   0.7500000   0.6531118   2.9738192  )
        14           I   tau(  14) = (   0.2500000   1.5746158   0.7816005  )
        15           I   tau(  15) = (   0.7500000   1.7669756   2.6593103  )
        16           I   tau(  16) = (   0.2500000   0.4607520   1.0961094  )
        17           I   tau(  17) = (   0.7500000   0.3753632   1.8734812  )
        18           I   tau(  18) = (   0.2500000   1.8523644   1.8819384  )
        19           I   tau(  19) = (   0.7500000   1.4892270   0.0042286  )
        20           I   tau(  20) = (   0.2500000   0.7385006   3.7511911  )

   Crystallographic axes

     site n.     atom                  positions (cryst. coord.)
         1           Cs  tau(   1) = (  0.2500000  0.0834770  0.6701820  )
         2           Cs  tau(   2) = (  0.7500000  0.9165230  0.3298180  )
         3           Cs  tau(   3) = (  0.2500000  0.5834770  0.8298180  )
         4           Cs  tau(   4) = (  0.7500000  0.4165230  0.1701820  )
         5           Sn  tau(   5) = (  0.2500000  0.3418600  0.4389780  )
         6           Sn  tau(   6) = (  0.7500000  0.6581400  0.5610220  )
         7           Sn  tau(   7) = (  0.2500000  0.8418600  0.0610220  )
         8           Sn  tau(   8) = (  0.7500000  0.1581400  0.9389780  )
         9           I   tau(   9) = (  0.7500000  0.0261000  0.1119070  )
        10           I   tau(  10) = (  0.2500000  0.9739000  0.8880930  )
        11           I   tau(  11) = (  0.7500000  0.5261000  0.3880930  )
        12           I   tau(  12) = (  0.2500000  0.4739000  0.6119070  )
        13           I   tau(  13) = (  0.7500000  0.2931740  0.7918740  )
        14           I   tau(  14) = (  0.2500000  0.7068260  0.2081260  )
        15           I   tau(  15) = (  0.7500000  0.7931740  0.7081260  )
        16           I   tau(  16) = (  0.2500000  0.2068260  0.2918740  )
        17           I   tau(  17) = (  0.7500000  0.1684960  0.4988740  )
        18           I   tau(  18) = (  0.2500000  0.8315040  0.5011260  )
        19           I   tau(  19) = (  0.7500000  0.6684960  0.0011260  )
        20           I   tau(  20) = (  0.2500000  0.3315040  0.9988740  )

     number of k points=    64
                       cart. coord. in units 2pi/alat
        k(    1) = (   0.0000000   0.0000000   0.0000000), wk =   0.0092593
        k(    2) = (   0.0000000   0.0000000   0.0443803), wk =   0.0185185
        k(    3) = (   0.0000000   0.0000000   0.0887606), wk =   0.0185185
        k(    4) = (   0.0000000   0.0000000  -0.1331409), wk =   0.0092593
        k(    5) = (   0.0000000   0.0748147   0.0000000), wk =   0.0185185
        k(    6) = (   0.0000000   0.0748147   0.0443803), wk =   0.0370370
        k(    7) = (   0.0000000   0.0748147   0.0887606), wk =   0.0370370
        k(    8) = (   0.0000000   0.0748147  -0.1331409), wk =   0.0185185
        k(    9) = (   0.0000000   0.1496293   0.0000000), wk =   0.0185185
        k(   10) = (   0.0000000   0.1496293   0.0443803), wk =   0.0370370
        k(   11) = (   0.0000000   0.1496293   0.0887606), wk =   0.0370370
        k(   12) = (   0.0000000   0.1496293  -0.1331409), wk =   0.0185185
        k(   13) = (   0.0000000  -0.2244440   0.0000000), wk =   0.0092593
        k(   14) = (   0.0000000  -0.2244440   0.0443803), wk =   0.0185185
        k(   15) = (   0.0000000  -0.2244440   0.0887606), wk =   0.0185185
        k(   16) = (   0.0000000  -0.2244440  -0.1331409), wk =   0.0092593
        k(   17) = (   0.1666667   0.0000000   0.0000000), wk =   0.0185185
        k(   18) = (   0.1666667   0.0000000   0.0443803), wk =   0.0370370
        k(   19) = (   0.1666667   0.0000000   0.0887606), wk =   0.0370370
        k(   20) = (   0.1666667   0.0000000  -0.1331409), wk =   0.0185185
[...]
     1.0000   1.0000   1.0000   1.0000   1.0000   1.0000   1.0000   1.0000
     1.0000   1.0000   1.0000   1.0000   1.0000   1.0000   1.0000   1.0000
     1.0000   1.0000   1.0000   1.0000   1.0000   1.0000   1.0000   1.0000
     0.0000

[...]

          k = 0.3333-0.2244-0.1331 ( 38012 PWs)   bands (ev):

[...]

          k =-0.5000 0.0000 0.0000 ( 38048 PWs)   bands (ev):

[...]

          k =-0.5000-0.2244-0.1331 ( 38056 PWs)   bands (ev):

   -17.8628 -17.8628 -17.8628 -17.8628 -17.8614 -17.8614 -17.8614 -17.8614
   -17.8502 -17.8502 -17.8502 -17.8502 -17.8423 -17.8423 -17.8423 -17.8423
   -17.8390 -17.8390 -17.8390 -17.8390 -17.7709 -17.7709 -17.7709 -17.7709
    -8.4869  -8.4869  -8.4869  -8.4869  -8.3121  -8.3121  -8.3121  -8.3121
    -8.2832  -8.2832  -8.2832  -8.2832  -4.7552  -4.7552  -4.7552  -4.7552
    -4.5974  -4.5974  -4.5974  -4.5974  -4.5675  -4.5675  -4.5675  -4.5675
    -3.1841  -3.1841  -3.1841  -3.1841   0.2127   0.2127   0.2127   0.2127
     0.4367   0.4367   0.4367   0.4367   0.8669   0.8669   0.8669   0.8669
     1.3684   1.3684   1.3684   1.3684   1.7066   1.7066   1.7066   1.7066
     1.7985   1.7985   1.7985   1.7985   1.9421   1.9421   1.9421   1.9421
     2.1104   2.1104   2.1104   2.1104   2.8808   2.8808   2.8808   2.8808
     6.1185

     occupation numbers
     1.0000   1.0000   1.0000   1.0000   1.0000   1.0000   1.0000   1.0000
     1.0000   1.0000   1.0000   1.0000   1.0000   1.0000   1.0000   1.0000
     1.0000   1.0000   1.0000   1.0000   1.0000   1.0000   1.0000   1.0000
     1.0000   1.0000   1.0000   1.0000   1.0000   1.0000   1.0000   1.0000
     1.0000   1.0000   1.0000   1.0000   1.0000   1.0000   1.0000   1.0000
     1.0000   1.0000   1.0000   1.0000   1.0000   1.0000   1.0000   1.0000
     1.0000   1.0000   1.0000   1.0000   1.0000   1.0000   1.0000   1.0000
     1.0000   1.0000   1.0000   1.0000   1.0000   1.0000   1.0000   1.0000
     1.0000   1.0000   1.0000   1.0000   1.0000   1.0000   1.0000   1.0000
     1.0000   1.0000   1.0000   1.0000   1.0000   1.0000   1.0000   1.0000
     1.0000   1.0000   1.0000   1.0000   1.0000   1.0000   1.0000   1.0000
     0.0000

     highest occupied, lowest unoccupied level (ev):     3.0501    5.1343

!    total energy              =   -7979.62722404 Ry

     total all-electron energy =   -282510.781937 Ry
     estimated scf accuracy    <       0.00000077 Ry

     The total energy is the sum of the following terms:
     one-electron contribution =    -463.62116589 Ry
     hartree contribution      =     316.57510340 Ry
     xc contribution           =    -465.88975817 Ry
     ewald contribution        =    -633.56960439 Ry
     one-center paw contrib.   =   -6733.12179899 Ry
      -> PAW hartree energy AE =      25.63887278 Ry
      -> PAW hartree energy PS =     -25.52932385 Ry
      -> PAW xc energy AE      =    -383.53090617 Ry
      -> PAW xc energy PS      =      20.51558021 Ry
      -> total E_H with PAW    =     316.68465233 Ry
      -> total E_XC with PAW   =    -828.90508412 Ry

     convergence has been achieved in  11 iterations

     Forces acting on atoms (cartesian axes, Ry/au):

     atom    1 type  3   force =     0.00000000   -0.00063603    0.00036098
     atom    2 type  3   force =     0.00000000    0.00063603   -0.00036098
     atom    3 type  3   force =     0.00000000   -0.00063603   -0.00036098
     atom    4 type  3   force =     0.00000000    0.00063603    0.00036098
     atom    5 type  1   force =     0.00000000   -0.00033766    0.00038693
     atom    6 type  1   force =    -0.00000000    0.00033766   -0.00038693
     atom    7 type  1   force =     0.00000000   -0.00033766   -0.00038693
     atom    8 type  1   force =    -0.00000000    0.00033766    0.00038693
     atom    9 type  2   force =     0.00000000    0.00004833   -0.00019999
     atom   10 type  2   force =     0.00000000   -0.00004833    0.00019999
     atom   11 type  2   force =     0.00000000    0.00004833    0.00019999
     atom   12 type  2   force =     0.00000000   -0.00004833   -0.00019999
     atom   13 type  2   force =    -0.00000000   -0.00014880   -0.00045210
     atom   14 type  2   force =     0.00000000    0.00014880    0.00045210
     atom   15 type  2   force =     0.00000000   -0.00014880    0.00045210
     atom   16 type  2   force =     0.00000000    0.00014880   -0.00045210
     atom   17 type  2   force =    -0.00000000   -0.00052342    0.00035865
     atom   18 type  2   force =     0.00000000    0.00052342   -0.00035865
     atom   19 type  2   force =    -0.00000000   -0.00052342   -0.00035865
     atom   20 type  2   force =     0.00000000    0.00052342    0.00035865
     The non-local contrib.  to forces
     atom    1 type  3   force =     0.00000000    0.00218357   -0.00222931
     atom    2 type  3   force =     0.00000000   -0.00218357    0.00222931
     atom    3 type  3   force =     0.00000000    0.00218357    0.00222931
     atom    4 type  3   force =     0.00000000   -0.00218357   -0.00222931
     atom    5 type  1   force =     0.00000000   -0.08702180   -0.13177401
     atom    6 type  1   force =     0.00000000    0.08702180    0.13177401
     atom    7 type  1   force =     0.00000000   -0.08702180    0.13177401
     atom    8 type  1   force =     0.00000000    0.08702180   -0.13177401
     atom    9 type  2   force =     0.00000000   -0.04828139   -0.04724103
     atom   10 type  2   force =     0.00000000    0.04828139    0.04724103
     atom   11 type  2   force =     0.00000000   -0.04828139    0.04724103
     atom   12 type  2   force =     0.00000000    0.04828139   -0.04724103
     atom   13 type  2   force =     0.00000000   -0.03284873    0.05564926
     atom   14 type  2   force =     0.00000000    0.03284873   -0.05564926
     atom   15 type  2   force =     0.00000000   -0.03284873   -0.05564926
     atom   16 type  2   force =     0.00000000    0.03284873    0.05564926
     atom   17 type  2   force =    -0.00000000    0.05542260   -0.01652990
     atom   18 type  2   force =     0.00000000   -0.05542260    0.01652990
     atom   19 type  2   force =     0.00000000    0.05542260    0.01652990
     atom   20 type  2   force =     0.00000000   -0.05542260   -0.01652990
     The ionic contribution  to forces
     atom    1 type  3   force =    -0.00000000    0.02273773    0.42856976
     atom    2 type  3   force =    -0.00000000   -0.02273773   -0.42856976
     atom    3 type  3   force =    -0.00000000    0.02273773   -0.42856976
     atom    4 type  3   force =    -0.00000000   -0.02273773    0.42856976
     atom    5 type  1   force =    -0.00000000   -2.44382135   -1.60292983
     atom    6 type  1   force =     0.00000000    2.44382135    1.60292983
     atom    7 type  1   force =    -0.00000000   -2.44382135    1.60292983
     atom    8 type  1   force =     0.00000000    2.44382135   -1.60292983
     atom    9 type  2   force =    -0.00000000    3.00608891    5.13288893
     atom   10 type  2   force =     0.00000000   -3.00608891   -5.13288893
     atom   11 type  2   force =    -0.00000000    3.00608891   -5.13288893
     atom   12 type  2   force =    -0.00000000   -3.00608891    5.13288893
     atom   13 type  2   force =     0.00000000    2.02422849   -3.75281499
     atom   14 type  2   force =     0.00000000   -2.02422849    3.75281499
     atom   15 type  2   force =    -0.00000000    2.02422849    3.75281499
     atom   16 type  2   force =    -0.00000000   -2.02422849   -3.75281499
     atom   17 type  2   force =    -0.00000000   -4.20564473    2.10270404
     atom   18 type  2   force =     0.00000000    4.20564473   -2.10270404
     atom   19 type  2   force =    -0.00000000   -4.20564473   -2.10270404
     atom   20 type  2   force =     0.00000000    4.20564473    2.10270404
     The local contribution  to forces
     atom    1 type  3   force =     0.00000000   -0.02547630   -0.42625490
     atom    2 type  3   force =     0.00000000    0.02547630    0.42625490
     atom    3 type  3   force =    -0.00000000   -0.02547630    0.42625490
     atom    4 type  3   force =     0.00000000    0.02547630   -0.42625490
     atom    5 type  1   force =    -0.00000000    2.52910580    1.73458591
     atom    6 type  1   force =    -0.00000000   -2.52910580   -1.73458591
     atom    7 type  1   force =    -0.00000000    2.52910580   -1.73458591
     atom    8 type  1   force =    -0.00000000   -2.52910580    1.73458591
     atom    9 type  2   force =    -0.00000000   -2.96399119   -5.09189005
     atom   10 type  2   force =     0.00000000    2.96399119    5.09189005
     atom   11 type  2   force =    -0.00000000   -2.96399119    5.09189005
     atom   12 type  2   force =     0.00000000    2.96399119   -5.09189005
     atom   13 type  2   force =    -0.00000000   -1.99568717    3.70398021
     atom   14 type  2   force =     0.00000000    1.99568717   -3.70398021
     atom   15 type  2   force =     0.00000000   -1.99568717   -3.70398021
     atom   16 type  2   force =     0.00000000    1.99568717    3.70398021
     atom   17 type  2   force =    -0.00000000    4.15677405   -2.08818825
     atom   18 type  2   force =     0.00000000   -4.15677405    2.08818825
     atom   19 type  2   force =     0.00000000    4.15677405    2.08818825
     atom   20 type  2   force =     0.00000000   -4.15677405   -2.08818825
     The core correction contribution to forces
     atom    1 type  3   force =     0.00000000   -0.00017738    0.00018165
     atom    2 type  3   force =     0.00000000    0.00017738   -0.00018165
     atom    3 type  3   force =     0.00000000   -0.00017738   -0.00018165
     atom    4 type  3   force =    -0.00000000    0.00017738    0.00018165
     atom    5 type  1   force =    -0.00000000    0.00018113    0.00006602
     atom    6 type  1   force =    -0.00000000   -0.00018113   -0.00006602
     atom    7 type  1   force =     0.00000000    0.00018113   -0.00006602
     atom    8 type  1   force =    -0.00000000   -0.00018113    0.00006602
     atom    9 type  2   force =     0.00000000    0.00642521    0.00651729
     atom   10 type  2   force =    -0.00000000   -0.00642521   -0.00651729
     atom   11 type  2   force =     0.00000000    0.00642521   -0.00651729
     atom   12 type  2   force =     0.00000000   -0.00642521    0.00651729
     atom   13 type  2   force =    -0.00000000    0.00434041   -0.00742868
     atom   14 type  2   force =     0.00000000   -0.00434041    0.00742868
     atom   15 type  2   force =     0.00000000    0.00434041    0.00742868
     atom   16 type  2   force =    -0.00000000   -0.00434041   -0.00742868
     atom   17 type  2   force =     0.00000000   -0.00761202    0.00247765
     atom   18 type  2   force =    -0.00000000    0.00761202   -0.00247765
     atom   19 type  2   force =     0.00000000   -0.00761202   -0.00247765
     atom   20 type  2   force =     0.00000000    0.00761202    0.00247765
     The Hubbard contrib.    to forces
     atom    1 type  3   force =     0.00000000    0.00000000    0.00000000
     atom    2 type  3   force =     0.00000000    0.00000000    0.00000000
     atom    3 type  3   force =     0.00000000    0.00000000    0.00000000
     atom    4 type  3   force =     0.00000000    0.00000000    0.00000000
     atom    5 type  1   force =     0.00000000    0.00000000    0.00000000
     atom    6 type  1   force =     0.00000000    0.00000000    0.00000000
     atom    7 type  1   force =     0.00000000    0.00000000    0.00000000
     atom    8 type  1   force =     0.00000000    0.00000000    0.00000000
     atom    9 type  2   force =     0.00000000    0.00000000    0.00000000
     atom   10 type  2   force =     0.00000000    0.00000000    0.00000000
     atom   11 type  2   force =     0.00000000    0.00000000    0.00000000
     atom   12 type  2   force =     0.00000000    0.00000000    0.00000000
     atom   13 type  2   force =     0.00000000    0.00000000    0.00000000
     atom   14 type  2   force =     0.00000000    0.00000000    0.00000000
     atom   15 type  2   force =     0.00000000    0.00000000    0.00000000
     atom   16 type  2   force =     0.00000000    0.00000000    0.00000000
     atom   17 type  2   force =     0.00000000    0.00000000    0.00000000
     atom   18 type  2   force =     0.00000000    0.00000000    0.00000000
     atom   19 type  2   force =     0.00000000    0.00000000    0.00000000
     atom   20 type  2   force =     0.00000000    0.00000000    0.00000000
     The SCF correction term to forces
     atom    1 type  3   force =     0.00000000    0.00009634    0.00009377
     atom    2 type  3   force =     0.00000000   -0.00009634   -0.00009377
     atom    3 type  3   force =     0.00000000    0.00009634   -0.00009377
     atom    4 type  3   force =     0.00000000   -0.00009634    0.00009377
     atom    5 type  1   force =    -0.00000000    0.00121857    0.00043884
     atom    6 type  1   force =     0.00000000   -0.00121857   -0.00043884
     atom    7 type  1   force =     0.00000000    0.00121857   -0.00043884
     atom    8 type  1   force =     0.00000000   -0.00121857    0.00043884
     atom    9 type  2   force =     0.00000000   -0.00019322   -0.00047514
     atom   10 type  2   force =     0.00000000    0.00019322    0.00047514
     atom   11 type  2   force =     0.00000000   -0.00019322    0.00047514
     atom   12 type  2   force =     0.00000000    0.00019322   -0.00047514
     atom   13 type  2   force =    -0.00000000   -0.00018180    0.00016209
     atom   14 type  2   force =     0.00000000    0.00018180   -0.00016209
     atom   15 type  2   force =    -0.00000000   -0.00018180   -0.00016209
     atom   16 type  2   force =     0.00000000    0.00018180    0.00016209
     atom   17 type  2   force =     0.00000000    0.00053668   -0.00010489
     atom   18 type  2   force =    -0.00000000   -0.00053668    0.00010489
     atom   19 type  2   force =     0.00000000    0.00053668    0.00010489
     atom   20 type  2   force =    -0.00000000   -0.00053668   -0.00010489

     Total force =     0.002425     Total SCF correction =     0.003044
     SCF correction compared to forces is large: reduce conv_thr to get better values

     Computing stress (Cartesian axis) and pressure

          total   stress  (Ry/bohr**3)                   (kbar)     P=       -0.47
  -0.00000314   0.00000000   0.00000000           -0.46        0.00        0.00
   0.00000000  -0.00000291   0.00000000            0.00       -0.43        0.00
   0.00000000   0.00000000  -0.00000364            0.00        0.00       -0.54

     kinetic stress (kbar)   5524.21      0.00      0.00
                                0.00   5535.37      0.00
                                0.00      0.00   5529.33

     local   stress (kbar)  -4516.88     -0.00     -0.00
                               -0.00  -1884.75      0.00
                               -0.00      0.00   -991.39

     nonloc. stress (kbar)   1139.70      0.00      0.00
                                0.00   1138.10      0.00
                                0.00      0.00   1140.75

     hartree stress (kbar)   3402.38     -0.00     -0.00
                               -0.00   2188.70      0.00
                               -0.00      0.00   1719.11

     exc-cor stress (kbar)   5446.86     -0.00     -0.00
                               -0.00   5446.51      0.00
                               -0.00      0.00   5446.94

     corecor stress (kbar)  -7211.93      0.00     -0.00
                                0.00  -7212.20     -0.00
                               -0.00     -0.00  -7212.18

     ewald   stress (kbar)  -3784.80     -0.00     -0.00
                               -0.00  -5212.16      0.00
                               -0.00      0.00  -5633.09

     hubbard stress (kbar)      0.00      0.00      0.00
                                0.00      0.00      0.00
                                0.00      0.00      0.00

     DFT-D   stress (kbar)      0.00      0.00      0.00
                                0.00      0.00      0.00
                                0.00      0.00      0.00

     XDM     stress (kbar)      0.00      0.00      0.00
                                0.00      0.00      0.00
                                0.00      0.00      0.00

     dft-nl  stress (kbar)      0.00      0.00      0.00
                                0.00      0.00      0.00
                                0.00      0.00      0.00

     TS-vdW  stress (kbar)      0.00      0.00      0.00
                                0.00      0.00      0.00
                                0.00      0.00      0.00

     Writing output data file ./out/CsSnI3.save/

     General routines

     Parallel routines

     PAW routines

   This run was terminated on:  12:36: 4  15Jan2021

   JOB DONE.