     Program PWSCF v.6.6 starts on 31Jan2021 at  2:26: 4

     R & G space division:  proc/nbgrp/npool/nimage =      96
     Fft bands division:     nmany     =       1
     Waiting for input...
     Reading input from standard input

     Current dimensions of program PWSCF are:
     Max number of different atomic species (ntypx) = 10
     Max number of k-points (npk) =  40000
     Max angular momentum in pseudopotentials (lmaxx) =  3

     File ./out/CsSnI3.update deleted, as requested

     File ./out/CsSnI3.bfgs deleted, as requested
     file Sn.rel-pbe-dn-rrkjus_psl.1.0.0.UPF: wavefunction(s)  5S 4D 4D renormalized
     file Cs.rel-pbe-spn-rrkjus_psl.1.0.0.UPF: wavefunction(s)  5S 6S renormalized

     Subspace diagonalization in iterative solution of the eigenvalue problem:
     a serial algorithm will be used

     Title:
     perovskite

     bravais-lattice index     =            8
     lattice parameter (alat)  =       9.1317  a.u.
     unit-cell volume          =    6370.5385 (a.u.)^3
     number of atoms/cell      =           20
     number of atomic types    =            3
     number of electrons       =       176.00
     number of Kohn-Sham states=          176
     kinetic-energy cutoff     =      80.0000  Ry
     charge density cutoff     =     320.0000  Ry
     convergence threshold     =      1.0E-07
     mixing beta               =       0.6000
     number of iterations used =            8  plain     mixing
     Exchange-correlation= PBE
                           (   1   4   3   4   0   0   0)
     nstep                     =           50

     Non magnetic calculation with spin-orbit

     celldm(1)=   9.131705  celldm(2)=   2.227728  celldm(3)=   3.755420
     celldm(4)=   0.000000  celldm(5)=   0.000000  celldm(6)=   0.000000

     crystal axes: (cart. coord. in units of alat)
               a(1) = (   1.000000   0.000000   0.000000 )
               a(2) = (   0.000000   2.227728   0.000000 )
               a(3) = (   0.000000   0.000000   3.755420 )

     reciprocal axes: (cart. coord. in units 2 pi/alat)
               b(1) = (  1.000000  0.000000  0.000000 )
               b(2) = (  0.000000  0.448888  0.000000 )
               b(3) = (  0.000000  0.000000  0.266282 )

     PseudoPot. # 1 for Sn read from file:
     /scratch/afiorent/degironcoli/pseudo/pseudo-usp/Sn.rel-pbe-dn-rrkjus_psl.1.0.0.UPF
     MD5 check sum: e9415cc9ba1036dfb73502962f03961a
     Pseudo is Ultrasoft + core correction, Zval = 14.0
     Generated using "atomic" code by A. Dal Corso v.6.3
     Using radial grid of 1243 points, 10 beta functions with:
                l(1) =   0
                l(2) =   0
                l(3) =   1
                l(4) =   1
                l(5) =   1
                l(6) =   1
                l(7) =   2
                l(8) =   2
                l(9) =   2
               l(10) =   2
     Q(r) pseudized with 0 coefficients

     PseudoPot. # 2 for I  read from file:
     /scratch/afiorent/degironcoli/pseudo/pseudo-usp/I.rel-pbe-n-rrkjus_psl.0.2.2.UPF
     MD5 check sum: b9024a078df971004264c9bcc9ff756e
     Pseudo is Ultrasoft + core correction, Zval =  7.0
     Generated using "atomic" code by A. Dal Corso v.5.0.2 svn rev. 9415
     Using radial grid of 1247 points,  6 beta functions with:
                l(1) =   0
                l(2) =   0
                l(3) =   1
                l(4) =   1
                l(5) =   1
                l(6) =   1
     Q(r) pseudized with 0 coefficients

     PseudoPot. # 3 for Cs read from file:
     /scratch/afiorent/degironcoli/pseudo/pseudo-usp/Cs.rel-pbe-spn-rrkjus_psl.1.0.0.UPF
     MD5 check sum: 92f45d5fced885c1284380ec35df8368
     Pseudo is Ultrasoft + core correction, Zval =  9.0
     Generated using "atomic" code by A. Dal Corso v.6.4.1
     Using radial grid of 1251 points, 15 beta functions with:
                l(1) =   0
                l(2) =   0
                l(3) =   0
                l(4) =   1
                l(5) =   1
                l(6) =   1
                l(7) =   1
                l(8) =   2
                l(9) =   2
               l(10) =   2
               l(11) =   2
               l(12) =   3
               l(13) =   3
               l(14) =   3
               l(15) =   3
     Q(r) pseudized with 0 coefficients

     atomic species   valence    mass     pseudopotential
        Sn            14.00   118.70000     Sn( 1.00)
        I              7.00   126.90000     I ( 1.00)
        Cs             9.00   132.90000     Cs( 1.00)

      8 Sym. Ops., with inversion, found ( 6 have fractional translation)

                                    s                        frac. trans.

      isym =  1     identity

 cryst.   s( 1) = (     1          0          0      )
                  (     0          1          0      )
                  (     0          0          1      )

 cart.    s( 1) = (  1.0000000  0.0000000  0.0000000 )
                  (  0.0000000  1.0000000  0.0000000 )
                  (  0.0000000  0.0000000  1.0000000 )

      isym =  2     180 deg rotation - cart. axis [0,0,1]

 cryst.   s( 2) = (    -1          0          0      )    f =(  0.0000000 )
                  (     0         -1          0      )       (  0.5000000 )
                  (     0          0          1      )       (  0.5000000 )

 cart.    s( 2) = ( -1.0000000  0.0000000  0.0000000 )    f =(  0.0000000 )
                  (  0.0000000 -1.0000000  0.0000000 )       (  1.1138638 )
                  (  0.0000000  0.0000000  1.0000000 )       (  1.8777098 )

[...]

      isym =  5     inversion

[...]

      isym =  6     inv. 180 deg rotation - cart. axis [0,0,1]

[...]

     double point group D_2h (mmm)
     there are 10 classes and  2 irreducible representations
     the character table:

       E     -E     C2    C2'  C2''  i     -i     s_v   s_v' s_v''
                   -C2   -C2'  -C2''             -s_v  -s_v' -s_v'
G_5+   2.00 -2.00  0.00  0.00  0.00  2.00 -2.00  0.00  0.00  0.00
G_5-   2.00 -2.00  0.00  0.00  0.00 -2.00  2.00  0.00  0.00  0.00

     the symmetry operations in each class and the name of the first element:

     E             1
          identity
     -E           -1
          identity E
      C2  -C2      2   -2
          180 deg rotation - cart. axis [0,0,1]
      C2' -C2'     4   -4
          180 deg rotation - cart. axis [1,0,0]
     C2'' -C2''    3   -3
          180 deg rotation - cart. axis [0,1,0]
     i             5
          inversion
     -i           -5
          inversion E
      s_v -s_v     6   -6
          inv. 180 deg rotation - cart. axis [0,0,1]
      s_v'-s_v'    8   -8
          inv. 180 deg rotation - cart. axis [1,0,0]
     s_v''-s_v'    7   -7
          inv. 180 deg rotation - cart. axis [0,1,0]

   Cartesian axes

     site n.     atom                  positions (alat units)
         1           Cs  tau(   1) = (   0.2500000   0.1859640   2.5168147  )
         2           Cs  tau(   2) = (   0.7500000   2.0417636   1.2386050  )
         3           Cs  tau(   3) = (   0.2500000   1.2998278   3.1163149  )
         4           Cs  tau(   4) = (   0.7500000   0.9278998   0.6391048  )
         5           Sn  tau(   5) = (   0.2500000   0.7615710   1.6485466  )
         6           Sn  tau(   6) = (   0.7500000   1.4661567   2.1068731  )
         7           Sn  tau(   7) = (   0.2500000   1.8754348   0.2291632  )
         8           Sn  tau(   8) = (   0.7500000   0.3522928   3.5262565  )
         9           I   tau(   9) = (   0.7500000   0.0581437   0.4202578  )
        10           I   tau(  10) = (   0.2500000   2.1695839   3.3351619  )
        11           I   tau(  11) = (   0.7500000   1.1720075   1.4574521  )
        12           I   tau(  12) = (   0.2500000   1.0557201   2.2979676  )
        13           I   tau(  13) = (   0.7500000   0.6531118   2.9738192  )
        14           I   tau(  14) = (   0.2500000   1.5746158   0.7816005  )
        15           I   tau(  15) = (   0.7500000   1.7669756   2.6593103  )
        16           I   tau(  16) = (   0.2500000   0.4607520   1.0961094  )
        17           I   tau(  17) = (   0.7500000   0.3753632   1.8734812  )
        18           I   tau(  18) = (   0.2500000   1.8523644   1.8819384  )
        19           I   tau(  19) = (   0.7500000   1.4892270   0.0042286  )
        20           I   tau(  20) = (   0.2500000   0.7385006   3.7511911  )

   Crystallographic axes

     site n.     atom                  positions (cryst. coord.)
         1           Cs  tau(   1) = (  0.2500000  0.0834770  0.6701820  )
         2           Cs  tau(   2) = (  0.7500000  0.9165230  0.3298180  )
         3           Cs  tau(   3) = (  0.2500000  0.5834770  0.8298180  )
         4           Cs  tau(   4) = (  0.7500000  0.4165230  0.1701820  )
         5           Sn  tau(   5) = (  0.2500000  0.3418600  0.4389780  )
         6           Sn  tau(   6) = (  0.7500000  0.6581400  0.5610220  )
         7           Sn  tau(   7) = (  0.2500000  0.8418600  0.0610220  )
         8           Sn  tau(   8) = (  0.7500000  0.1581400  0.9389780  )
         9           I   tau(   9) = (  0.7500000  0.0261000  0.1119070  )
        10           I   tau(  10) = (  0.2500000  0.9739000  0.8880930  )
        11           I   tau(  11) = (  0.7500000  0.5261000  0.3880930  )
        12           I   tau(  12) = (  0.2500000  0.4739000  0.6119070  )
        13           I   tau(  13) = (  0.7500000  0.2931740  0.7918740  )
        14           I   tau(  14) = (  0.2500000  0.7068260  0.2081260  )
        15           I   tau(  15) = (  0.7500000  0.7931740  0.7081260  )
        16           I   tau(  16) = (  0.2500000  0.2068260  0.2918740  )
        17           I   tau(  17) = (  0.7500000  0.1684960  0.4988740  )
        18           I   tau(  18) = (  0.2500000  0.8315040  0.5011260  )
        19           I   tau(  19) = (  0.7500000  0.6684960  0.0011260  )
        20           I   tau(  20) = (  0.2500000  0.3315040  0.9988740  )

     number of k points=     8
                       cart. coord. in units 2pi/alat
        k(    1) = (   0.1666667   0.0748147   0.0443803), wk =   0.2962963
        k(    2) = (   0.1666667   0.0748147  -0.1331409), wk =   0.1481481
        k(    3) = (   0.1666667  -0.2244440   0.0443803), wk =   0.1481481
        k(    4) = (   0.1666667  -0.2244440  -0.1331409), wk =   0.0740741
        k(    5) = (  -0.5000000   0.0748147   0.0443803), wk =   0.1481481
        k(    6) = (  -0.5000000   0.0748147  -0.1331409), wk =   0.0740741
        k(    7) = (  -0.5000000  -0.2244440   0.0443803), wk =   0.0740741
        k(    8) = (  -0.5000000  -0.2244440  -0.1331409), wk =   0.0370370

                       cryst. coord.
        k(    1) = (   0.1666667   0.1666667   0.1666667), wk =   0.2962963
        k(    2) = (   0.1666667   0.1666667  -0.5000000), wk =   0.1481481
        k(    3) = (   0.1666667  -0.5000000   0.1666667), wk =   0.1481481
        k(    4) = (   0.1666667  -0.5000000  -0.5000000), wk =   0.0740741
        k(    5) = (  -0.5000000   0.1666667   0.1666667), wk =   0.1481481
        k(    6) = (  -0.5000000   0.1666667  -0.5000000), wk =   0.0740741
[...]
    -4.2287  -4.2287  -4.2287  -4.2287  -4.2268  -4.2268  -4.2268  -4.2268
    -4.1010  -4.1010  -4.1010  -4.1010  -4.0999  -4.0999  -4.0999  -4.0999
    -3.1718  -3.1718  -3.1718  -3.1718  -3.1708  -3.1708  -3.1708  -3.1708
     0.0217   0.0217   0.0217   0.0217   0.0444   0.0444   0.0444   0.0444
     0.3995   0.3995   0.3995   0.3995   0.4393   0.4393   0.4393   0.4393
     0.7061   0.7061   0.7061   0.7061   0.7314   0.7314   0.7314   0.7314
     1.2028   1.2028   1.2028   1.2028   1.2058   1.2058   1.2058   1.2058
     1.5623   1.5623   1.5623   1.5623   1.6232   1.6232   1.6232   1.6232
     1.7648   1.7648   1.7648   1.7648   1.7818   1.7818   1.7818   1.7818
     2.0025   2.0025   2.0025   2.0025   2.0155   2.0155   2.0155   2.0155
     2.2734   2.2734   2.2734   2.2734   2.2756   2.2756   2.2756   2.2756
     2.9396   2.9396   2.9396   2.9396   2.9687   2.9687   2.9687   2.9687

     occupation numbers
     1.0000   1.0000   1.0000   1.0000   1.0000   1.0000   1.0000   1.0000
     1.0000   1.0000   1.0000   1.0000   1.0000   1.0000   1.0000   1.0000
     1.0000   1.0000   1.0000   1.0000   1.0000   1.0000   1.0000   1.0000
     1.0000   1.0000   1.0000   1.0000   1.0000   1.0000   1.0000   1.0000
     1.0000   1.0000   1.0000   1.0000   1.0000   1.0000   1.0000   1.0000
     1.0000   1.0000   1.0000   1.0000   1.0000   1.0000   1.0000   1.0000
     1.0000   1.0000   1.0000   1.0000   1.0000   1.0000   1.0000   1.0000
     1.0000   1.0000   1.0000   1.0000   1.0000   1.0000   1.0000   1.0000
     1.0000   1.0000   1.0000   1.0000   1.0000   1.0000   1.0000   1.0000
     1.0000   1.0000   1.0000   1.0000   1.0000   1.0000   1.0000   1.0000
     1.0000   1.0000   1.0000   1.0000   1.0000   1.0000   1.0000   1.0000
     1.0000   1.0000   1.0000   1.0000   1.0000   1.0000   1.0000   1.0000
     1.0000   1.0000   1.0000   1.0000   1.0000   1.0000   1.0000   1.0000
     1.0000   1.0000   1.0000   1.0000   1.0000   1.0000   1.0000   1.0000
     1.0000   1.0000   1.0000   1.0000   1.0000   1.0000   1.0000   1.0000
     1.0000   1.0000   1.0000   1.0000   1.0000   1.0000   1.0000   1.0000
     1.0000   1.0000   1.0000   1.0000   1.0000   1.0000   1.0000   1.0000
     1.0000   1.0000   1.0000   1.0000   1.0000   1.0000   1.0000   1.0000
     1.0000   1.0000   1.0000   1.0000   1.0000   1.0000   1.0000   1.0000
     1.0000   1.0000   1.0000   1.0000   1.0000   1.0000   1.0000   1.0000
     1.0000   1.0000   1.0000   1.0000   1.0000   1.0000   1.0000   1.0000
     1.0000   1.0000   1.0000   1.0000   1.0000   1.0000   1.0000   1.0000

     highest occupied level (ev):     3.1083

!    total energy              =   -1576.42917274 Ry
     estimated scf accuracy    <          5.8E-11 Ry

     The total energy is the sum of the following terms:
     one-electron contribution =    -482.78489671 Ry
     hartree contribution      =     316.57508262 Ry
     xc contribution           =    -776.82688101 Ry
     ewald contribution        =    -633.39247763 Ry

     convergence has been achieved in  19 iterations

     Forces acting on atoms (cartesian axes, Ry/au):

     atom    1 type  3   force =    -0.00000000   -0.00005688   -0.00009551
     atom    2 type  3   force =    -0.00000000    0.00005688    0.00009551
     atom    3 type  3   force =     0.00000000   -0.00005688    0.00009551
     atom    4 type  3   force =     0.00000000    0.00005688   -0.00009551
     atom    5 type  1   force =     0.00000000    0.00007325    0.00003802
     atom    6 type  1   force =     0.00000000   -0.00007325   -0.00003802
     atom    7 type  1   force =     0.00000000    0.00007325   -0.00003802
     atom    8 type  1   force =     0.00000000   -0.00007325    0.00003802
     atom    9 type  2   force =     0.00000000    0.00004082   -0.00002830
     atom   10 type  2   force =     0.00000000   -0.00004082    0.00002830
     atom   11 type  2   force =    -0.00000000    0.00004082    0.00002830
     atom   12 type  2   force =    -0.00000000   -0.00004082   -0.00002830
     atom   13 type  2   force =    -0.00000000   -0.00003897   -0.00000128
     atom   14 type  2   force =     0.00000000    0.00003897    0.00000128
     atom   15 type  2   force =    -0.00000000   -0.00003897    0.00000128
     atom   16 type  2   force =     0.00000000    0.00003897   -0.00000128
     atom   17 type  2   force =    -0.00000000   -0.00003403   -0.00001401
     atom   18 type  2   force =    -0.00000000    0.00003403    0.00001401
     atom   19 type  2   force =     0.00000000   -0.00003403    0.00001401
     atom   20 type  2   force =     0.00000000    0.00003403   -0.00001401
     The non-local contrib.  to forces
     atom    1 type  3   force =     0.00000000    0.00374166   -0.00351259
     atom    2 type  3   force =     0.00000000   -0.00374166    0.00351259
     atom    3 type  3   force =     0.00000000    0.00374166    0.00351259
     atom    4 type  3   force =     0.00000000   -0.00374166   -0.00351259
     atom    5 type  1   force =     0.00000000   -0.07566522   -0.12419120
     atom    6 type  1   force =     0.00000000    0.07566522    0.12419120
     atom    7 type  1   force =     0.00000000   -0.07566522    0.12419120
     atom    8 type  1   force =     0.00000000    0.07566522   -0.12419120
     atom    9 type  2   force =     0.00000000   -0.03647521   -0.03287093
     atom   10 type  2   force =     0.00000000    0.03647521    0.03287093
     atom   11 type  2   force =     0.00000000   -0.03647521    0.03287093
     atom   12 type  2   force =     0.00000000    0.03647521   -0.03287093
     atom   13 type  2   force =     0.00000000   -0.02493242    0.04540274
     atom   14 type  2   force =     0.00000000    0.02493242   -0.04540274
     atom   15 type  2   force =     0.00000000   -0.02493242   -0.04540274
     atom   16 type  2   force =    -0.00000000    0.02493242    0.04540274
     atom   17 type  2   force =     0.00000000    0.03514087   -0.01177875
     atom   18 type  2   force =     0.00000000   -0.03514087    0.01177875
     atom   19 type  2   force =     0.00000000    0.03514087    0.01177875
     atom   20 type  2   force =     0.00000000   -0.03514087   -0.01177875
     The ionic contribution  to forces
     atom    1 type  3   force =     0.00000000    0.17041415    0.32394930
     atom    2 type  3   force =    -0.00000000   -0.17041415   -0.32394930
     atom    3 type  3   force =     0.00000000    0.17041415   -0.32394930
     atom    4 type  3   force =    -0.00000000   -0.17041415    0.32394930
     atom    5 type  1   force =     0.00000000   -2.52818237   -1.46038629
     atom    6 type  1   force =    -0.00000000    2.52818237    1.46038629
     atom    7 type  1   force =     0.00000000   -2.52818237    1.46038629
     atom    8 type  1   force =    -0.00000000    2.52818237   -1.46038629
     atom    9 type  2   force =    -0.00000000    3.01627362    5.10785855
     atom   10 type  2   force =     0.00000000   -3.01627362   -5.10785855
     atom   11 type  2   force =    -0.00000000    3.01627362   -5.10785855
     atom   12 type  2   force =     0.00000000   -3.01627362    5.10785855
     atom   13 type  2   force =    -0.00000000    1.91874888   -3.76941868
     atom   14 type  2   force =     0.00000000   -1.91874888    3.76941868
     atom   15 type  2   force =    -0.00000000    1.91874888    3.76941868
     atom   16 type  2   force =     0.00000000   -1.91874888   -3.76941868
     atom   17 type  2   force =    -0.00000000   -4.09988388    2.16129939
     atom   18 type  2   force =     0.00000000    4.09988388   -2.16129939
     atom   19 type  2   force =    -0.00000000   -4.09988388   -2.16129939
     atom   20 type  2   force =     0.00000000    4.09988388    2.16129939
     The local contribution  to forces
     atom    1 type  3   force =     0.00000000   -0.17394204   -0.32080006
     atom    2 type  3   force =    -0.00000000    0.17394204    0.32080006
     atom    3 type  3   force =     0.00000000   -0.17394204    0.32080006
     atom    4 type  3   force =    -0.00000000    0.17394204   -0.32080006
     atom    5 type  1   force =     0.00000000    2.60378639    1.58437827
     atom    6 type  1   force =    -0.00000000   -2.60378639   -1.58437827
     atom    7 type  1   force =     0.00000000    2.60378639   -1.58437827
     atom    8 type  1   force =    -0.00000000   -2.60378639    1.58437827
     atom    9 type  2   force =    -0.00000000   -2.98632904   -5.08214864
     atom   10 type  2   force =     0.00000000    2.98632904    5.08214864
     atom   11 type  2   force =    -0.00000000   -2.98632904    5.08214864
     atom   12 type  2   force =     0.00000000    2.98632904   -5.08214864
     atom   13 type  2   force =    -0.00000000   -1.89812013    3.73188962
     atom   14 type  2   force =     0.00000000    1.89812013   -3.73188962
     atom   15 type  2   force =    -0.00000000   -1.89812013   -3.73188962
     atom   16 type  2   force =     0.00000000    1.89812013    3.73188962
     atom   17 type  2   force =    -0.00000000    4.07282940   -2.15212717
     atom   18 type  2   force =     0.00000000   -4.07282940    2.15212717
     atom   19 type  2   force =    -0.00000000    4.07282940    2.15212717
     atom   20 type  2   force =     0.00000000   -4.07282940   -2.15212717
     The core correction contribution to forces
     atom    1 type  3   force =    -0.00000000   -0.00026932    0.00027125
     atom    2 type  3   force =     0.00000000    0.00026932   -0.00027125
     atom    3 type  3   force =    -0.00000000   -0.00026932   -0.00027125
     atom    4 type  3   force =     0.00000000    0.00026932    0.00027125
     atom    5 type  1   force =     0.00000000    0.00015218    0.00023733
     atom    6 type  1   force =    -0.00000000   -0.00015218   -0.00023733
     atom    7 type  1   force =     0.00000000    0.00015218   -0.00023733
     atom    8 type  1   force =    -0.00000000   -0.00015218    0.00023733
     atom    9 type  2   force =     0.00000000    0.00657126    0.00713151
     atom   10 type  2   force =    -0.00000000   -0.00657126   -0.00713151
     atom   11 type  2   force =     0.00000000    0.00657126   -0.00713151
     atom   12 type  2   force =    -0.00000000   -0.00657126    0.00713151
     atom   13 type  2   force =     0.00000000    0.00426408   -0.00787654
     atom   14 type  2   force =    -0.00000000   -0.00426408    0.00787654
     atom   15 type  2   force =     0.00000000    0.00426408    0.00787654
     atom   16 type  2   force =    -0.00000000   -0.00426408   -0.00787654
     atom   17 type  2   force =     0.00000000   -0.00811717    0.00259298
     atom   18 type  2   force =    -0.00000000    0.00811717   -0.00259298
     atom   19 type  2   force =     0.00000000   -0.00811717   -0.00259298
     atom   20 type  2   force =    -0.00000000    0.00811717    0.00259298
     The Hubbard contrib.    to forces
     atom    1 type  3   force =     0.00000000    0.00000000    0.00000000
     atom    2 type  3   force =     0.00000000    0.00000000    0.00000000
     atom    3 type  3   force =     0.00000000    0.00000000    0.00000000
     atom    4 type  3   force =     0.00000000    0.00000000    0.00000000
     atom    5 type  1   force =     0.00000000    0.00000000    0.00000000
     atom    6 type  1   force =     0.00000000    0.00000000    0.00000000
     atom    7 type  1   force =     0.00000000    0.00000000    0.00000000
     atom    8 type  1   force =     0.00000000    0.00000000    0.00000000
     atom    9 type  2   force =     0.00000000    0.00000000    0.00000000
     atom   10 type  2   force =     0.00000000    0.00000000    0.00000000
     atom   11 type  2   force =     0.00000000    0.00000000    0.00000000
     atom   12 type  2   force =     0.00000000    0.00000000    0.00000000
     atom   13 type  2   force =     0.00000000    0.00000000    0.00000000
     atom   14 type  2   force =     0.00000000    0.00000000    0.00000000
     atom   15 type  2   force =     0.00000000    0.00000000    0.00000000
     atom   16 type  2   force =     0.00000000    0.00000000    0.00000000
     atom   17 type  2   force =     0.00000000    0.00000000    0.00000000
     atom   18 type  2   force =     0.00000000    0.00000000    0.00000000
     atom   19 type  2   force =     0.00000000    0.00000000    0.00000000
     atom   20 type  2   force =     0.00000000    0.00000000    0.00000000
     The SCF correction term to forces
     atom    1 type  3   force =     0.00000000   -0.00000133   -0.00000341
     atom    2 type  3   force =    -0.00000000    0.00000133    0.00000341
     atom    3 type  3   force =    -0.00000000   -0.00000133    0.00000341
     atom    4 type  3   force =     0.00000000    0.00000133   -0.00000341
     atom    5 type  1   force =    -0.00000000   -0.00001772   -0.00000008
     atom    6 type  1   force =     0.00000000    0.00001772    0.00000008
     atom    7 type  1   force =    -0.00000000   -0.00001772    0.00000008
     atom    8 type  1   force =     0.00000000    0.00001772   -0.00000008
     atom    9 type  2   force =    -0.00000000    0.00000019    0.00000121
     atom   10 type  2   force =     0.00000000   -0.00000019   -0.00000121
     atom   11 type  2   force =    -0.00000000    0.00000019   -0.00000121
     atom   12 type  2   force =     0.00000000   -0.00000019    0.00000121
     atom   13 type  2   force =    -0.00000000    0.00000062    0.00000160
     atom   14 type  2   force =     0.00000000   -0.00000062   -0.00000160
     atom   15 type  2   force =     0.00000000    0.00000062   -0.00000160
     atom   16 type  2   force =     0.00000000   -0.00000062    0.00000160
     atom   17 type  2   force =     0.00000000   -0.00000325   -0.00000046
     atom   18 type  2   force =    -0.00000000    0.00000325    0.00000046
     atom   19 type  2   force =     0.00000000   -0.00000325    0.00000046
     atom   20 type  2   force =     0.00000000    0.00000325   -0.00000046

     Total force =     0.000313     Total SCF correction =     0.000037
     SCF correction compared to forces is large: reduce conv_thr to get better values

     Computing stress (Cartesian axis) and pressure

          total   stress  (Ry/bohr**3)                   (kbar)     P=       -0.03
   0.00000026   0.00000000   0.00000000            0.04        0.00        0.00
   0.00000000  -0.00000018   0.00000000            0.00       -0.03        0.00
   0.00000000   0.00000000  -0.00000061            0.00        0.00       -0.09

     kinetic stress (kbar)   5463.57      0.00      0.00
                                0.00   5475.96      0.00
                                0.00      0.00   5469.27

     local   stress (kbar)  -2532.77      0.00      0.00
                                0.00     52.82     -0.00
                                0.00     -0.00   1010.62

     nonloc. stress (kbar)   -733.59      0.00      0.00
                                0.00   -737.59      0.00
                                0.00      0.00   -734.79

     hartree stress (kbar)   3393.38      0.00     -0.00
                                0.00   2203.48      0.00
                               -0.00      0.00   1700.13

     exc-cor stress (kbar)  12417.37     -0.00      0.00
                               -0.00  12417.10     -0.00
                                0.00     -0.00  12417.53

     corecor stress (kbar) -14227.32      0.00     -0.00
                                0.00 -14227.91      0.00
                               -0.00      0.00 -14227.77

     ewald   stress (kbar)  -3780.58     -0.00      0.00
                               -0.00  -5183.88      0.00
                                0.00      0.00  -5635.09

     hubbard stress (kbar)      0.00      0.00      0.00
                                0.00      0.00      0.00
                                0.00      0.00      0.00

     DFT-D   stress (kbar)      0.00      0.00      0.00
                                0.00      0.00      0.00
                                0.00      0.00      0.00

     XDM     stress (kbar)      0.00      0.00      0.00
                                0.00      0.00      0.00
                                0.00      0.00      0.00

     dft-nl  stress (kbar)      0.00      0.00      0.00
                                0.00      0.00      0.00
                                0.00      0.00      0.00

     TS-vdW  stress (kbar)      0.00      0.00      0.00
                                0.00      0.00      0.00
                                0.00      0.00      0.00

     Writing output data file ./out/CsSnI3.save/

     General routines

     Parallel routines

   This run was terminated on:  14: 9:27  31Jan2021

   JOB DONE.