     Program PWSCF v.6.6 starts on 24Jan2021 at 21:50:23

     R & G space division:  proc/nbgrp/npool/nimage =      64
     Fft bands division:     nmany     =       1
     Waiting for input...
     Reading input from standard input

     Current dimensions of program PWSCF are:
     Max number of different atomic species (ntypx) = 10
     Max number of k-points (npk) =  40000
     Max angular momentum in pseudopotentials (lmaxx) =  3
     file Cs.pbesol-spn-rrkjus_psl.1.0.0.UPF: wavefunction(s)  5S 6S renormalized
     file Sn.pbesol-dn-kjpaw_psl.1.0.0.UPF: wavefunction(s)  5S 5P 4D renormalized
     file I.pbesol-n-kjpaw_psl.1.0.0.UPF: wavefunction(s)  5S renormalized

     Subspace diagonalization in iterative solution of the eigenvalue problem:
     a serial algorithm will be used

     Title:
     CsSnI3

     bravais-lattice index     =            8
     lattice parameter (alat)  =       9.1317  a.u.
     unit-cell volume          =    6370.5385 (a.u.)^3
     number of atoms/cell      =           20
     number of atomic types    =            3
     number of electrons       =       176.00
     number of Kohn-Sham states=           88
     kinetic-energy cutoff     =      70.0000  Ry
     charge density cutoff     =     420.0000  Ry
     convergence threshold     =      1.0E-06
     mixing beta               =       0.5000
     number of iterations used =            8  plain     mixing
     Exchange-correlation= SLA PW PSX PSC
                           (   1   4  10   8   0   0   0)

     celldm(1)=   9.131705  celldm(2)=   2.227728  celldm(3)=   3.755420
     celldm(4)=   0.000000  celldm(5)=   0.000000  celldm(6)=   0.000000

     crystal axes: (cart. coord. in units of alat)
               a(1) = (   1.000000   0.000000   0.000000 )
               a(2) = (   0.000000   2.227728   0.000000 )
               a(3) = (   0.000000   0.000000   3.755420 )

     reciprocal axes: (cart. coord. in units 2 pi/alat)
               b(1) = (  1.000000  0.000000  0.000000 )
               b(2) = (  0.000000  0.448888  0.000000 )
               b(3) = (  0.000000  0.000000  0.266282 )

     PseudoPot. # 1 for Cs read from file:
     /scratch/gtenti/degironcoli/pseudo/Cs.pbesol-spn-rrkjus_psl.1.0.0.UPF
     MD5 check sum: a505fbb08e6a224ea4404a33e275d1b5
     Pseudo is Ultrasoft + core correction, Zval =  9.0
     Generated using "atomic" code by A. Dal Corso v.6.4.1
     Using radial grid of 1251 points,  9 beta functions with:
                l(1) =   0
                l(2) =   0
                l(3) =   0
                l(4) =   1
                l(5) =   1
                l(6) =   2
                l(7) =   2
                l(8) =   3
                l(9) =   3
     Q(r) pseudized with 0 coefficients

     PseudoPot. # 2 for Sn read from file:
     /scratch/gtenti/degironcoli/pseudo/Sn.pbesol-dn-kjpaw_psl.1.0.0.UPF
     MD5 check sum: 3b64f90c238cf26ccb627d174952382c
     Pseudo is Projector augmented-wave + core cor, Zval = 14.0
     Generated using "atomic" code by A. Dal Corso v.6.3
     Shape of augmentation charge: PSQ
     Using radial grid of 1243 points,  6 beta functions with:
                l(1) =   0
                l(2) =   0
                l(3) =   1
                l(4) =   1
                l(5) =   2
                l(6) =   2
     Q(r) pseudized with 0 coefficients

     PseudoPot. # 3 for I  read from file:
     /scratch/gtenti/degironcoli/pseudo/I.pbesol-n-kjpaw_psl.1.0.0.UPF
     MD5 check sum: 6038403ff9b03366b27f71806436e734
     Pseudo is Projector augmented-wave + core cor, Zval =  7.0
     Generated using "atomic" code by A. Dal Corso v.6.3
     Shape of augmentation charge: PSQ
     Using radial grid of 1247 points,  6 beta functions with:
                l(1) =   0
                l(2) =   0
                l(3) =   1
                l(4) =   1
                l(5) =   2
                l(6) =   2
     Q(r) pseudized with 0 coefficients

     atomic species   valence    mass     pseudopotential
        Cs             9.00   132.90000     Cs( 1.00)
        Sn            14.00   118.70000     Sn( 1.00)
        I              7.00   126.90000     I ( 1.00)

      8 Sym. Ops., with inversion, found ( 6 have fractional translation)

                                    s                        frac. trans.

      isym =  1     identity

 cryst.   s( 1) = (     1          0          0      )
                  (     0          1          0      )
                  (     0          0          1      )

 cart.    s( 1) = (  1.0000000  0.0000000  0.0000000 )
                  (  0.0000000  1.0000000  0.0000000 )
                  (  0.0000000  0.0000000  1.0000000 )

      isym =  2     180 deg rotation - cart. axis [0,0,1]

 cryst.   s( 2) = (    -1          0          0      )    f =(  0.0000000 )
                  (     0         -1          0      )       (  0.5000000 )
                  (     0          0          1      )       (  0.5000000 )

 cart.    s( 2) = ( -1.0000000  0.0000000  0.0000000 )    f =(  0.0000000 )
                  (  0.0000000 -1.0000000  0.0000000 )       (  1.1138638 )
                  (  0.0000000  0.0000000  1.0000000 )       (  1.8777098 )

[...]

      isym =  4     180 deg rotation - cart. axis [1,0,0]

[...]

      isym =  5     inversion

 cryst.   s( 5) = (    -1          0          0      )
                  (     0         -1          0      )
                  (     0          0         -1      )

 cart.    s( 5) = ( -1.0000000  0.0000000  0.0000000 )
                  (  0.0000000 -1.0000000  0.0000000 )
                  (  0.0000000  0.0000000 -1.0000000 )

      isym =  6     inv. 180 deg rotation - cart. axis [0,0,1]

[...]

      isym =  8     inv. 180 deg rotation - cart. axis [1,0,0]

 cryst.   s( 8) = (    -1          0          0      )    f =(  0.5000000 )
                  (     0          1          0      )       (  0.0000000 )
                  (     0          0          1      )       (  0.0000000 )

 cart.    s( 8) = ( -1.0000000  0.0000000  0.0000000 )    f =(  0.5000000 )
                  (  0.0000000  1.0000000  0.0000000 )       (  0.0000000 )
                  (  0.0000000  0.0000000  1.0000000 )       (  0.0000000 )

     point group D_2h (mmm)
     there are  8 classes
     the character table:

       E     C2    C2'   C2''  i     s_v   s_v'  s_v''
A_g    1.00  1.00  1.00  1.00  1.00  1.00  1.00  1.00
B_1g   1.00  1.00 -1.00 -1.00  1.00  1.00 -1.00 -1.00
B_2g   1.00 -1.00  1.00 -1.00  1.00 -1.00  1.00 -1.00
B_3g   1.00 -1.00 -1.00  1.00  1.00 -1.00 -1.00  1.00
A_u    1.00  1.00  1.00  1.00 -1.00 -1.00 -1.00 -1.00
B_1u   1.00  1.00 -1.00 -1.00 -1.00 -1.00  1.00  1.00
B_2u   1.00 -1.00  1.00 -1.00 -1.00  1.00 -1.00  1.00
B_3u   1.00 -1.00 -1.00  1.00 -1.00  1.00  1.00 -1.00

     the symmetry operations in each class and the name of the first element:

     E        1
          identity
     C2       2
          180 deg rotation - cart. axis [0,0,1]
     C2'      4
          180 deg rotation - cart. axis [1,0,0]
     C2''     3
          180 deg rotation - cart. axis [0,1,0]
     i        5
          inversion
     s_v      6
          inv. 180 deg rotation - cart. axis [0,0,1]
     s_v'     8
          inv. 180 deg rotation - cart. axis [1,0,0]
     s_v''    7
          inv. 180 deg rotation - cart. axis [0,1,0]

   Cartesian axes

     site n.     atom                  positions (alat units)
         1           Cs  tau(   1) = (   0.2500000   0.1859640   2.5168147  )
         2           Cs  tau(   2) = (   0.7500000   2.0417636   1.2386050  )
         3           Cs  tau(   3) = (   0.2500000   1.2998278   3.1163149  )
         4           Cs  tau(   4) = (   0.7500000   0.9278998   0.6391048  )
         5           Sn  tau(   5) = (   0.2500000   0.7615710   1.6485466  )
         6           Sn  tau(   6) = (   0.7500000   1.4661567   2.1068731  )
         7           Sn  tau(   7) = (   0.2500000   1.8754348   0.2291632  )
         8           Sn  tau(   8) = (   0.7500000   0.3522928   3.5262565  )
         9           I   tau(   9) = (   0.7500000   0.0581437   0.4202578  )
        10           I   tau(  10) = (   0.2500000   2.1695839   3.3351619  )
        11           I   tau(  11) = (   0.7500000   1.1720075   1.4574521  )
        12           I   tau(  12) = (   0.2500000   1.0557201   2.2979676  )
        13           I   tau(  13) = (   0.7500000   0.6531118   2.9738192  )
        14           I   tau(  14) = (   0.2500000   1.5746158   0.7816005  )
        15           I   tau(  15) = (   0.7500000   1.7669756   2.6593103  )
        16           I   tau(  16) = (   0.2500000   0.4607520   1.0961094  )
        17           I   tau(  17) = (   0.7500000   0.3753632   1.8734812  )
        18           I   tau(  18) = (   0.2500000   1.8523644   1.8819384  )
        19           I   tau(  19) = (   0.7500000   1.4892270   0.0042286  )
        20           I   tau(  20) = (   0.2500000   0.7385006   3.7511911  )

   Crystallographic axes

     site n.     atom                  positions (cryst. coord.)
         1           Cs  tau(   1) = (  0.2500000  0.0834770  0.6701820  )
         2           Cs  tau(   2) = (  0.7500000  0.9165230  0.3298180  )
         3           Cs  tau(   3) = (  0.2500000  0.5834770  0.8298180  )
         4           Cs  tau(   4) = (  0.7500000  0.4165230  0.1701820  )
         5           Sn  tau(   5) = (  0.2500000  0.3418600  0.4389780  )
         6           Sn  tau(   6) = (  0.7500000  0.6581400  0.5610220  )
         7           Sn  tau(   7) = (  0.2500000  0.8418600  0.0610220  )
         8           Sn  tau(   8) = (  0.7500000  0.1581400  0.9389780  )
         9           I   tau(   9) = (  0.7500000  0.0261000  0.1119070  )
        10           I   tau(  10) = (  0.2500000  0.9739000  0.8880930  )
        11           I   tau(  11) = (  0.7500000  0.5261000  0.3880930  )
        12           I   tau(  12) = (  0.2500000  0.4739000  0.6119070  )
        13           I   tau(  13) = (  0.7500000  0.2931740  0.7918740  )
        14           I   tau(  14) = (  0.2500000  0.7068260  0.2081260  )
        15           I   tau(  15) = (  0.7500000  0.7931740  0.7081260  )
        16           I   tau(  16) = (  0.2500000  0.2068260  0.2918740  )
        17           I   tau(  17) = (  0.7500000  0.1684960  0.4988740  )
        18           I   tau(  18) = (  0.2500000  0.8315040  0.5011260  )
        19           I   tau(  19) = (  0.7500000  0.6684960  0.0011260  )
        20           I   tau(  20) = (  0.2500000  0.3315040  0.9988740  )

     number of k points=     8
                       cart. coord. in units 2pi/alat
        k(    1) = (   0.0000000   0.0000000   0.0000000), wk =   0.2500000
        k(    2) = (   0.0000000   0.0000000  -0.1331409), wk =   0.2500000
        k(    3) = (   0.0000000  -0.2244440   0.0000000), wk =   0.2500000
        k(    4) = (   0.0000000  -0.2244440  -0.1331409), wk =   0.2500000
        k(    5) = (  -0.5000000   0.0000000   0.0000000), wk =   0.2500000
        k(    6) = (  -0.5000000   0.0000000  -0.1331409), wk =   0.2500000
        k(    7) = (  -0.5000000  -0.2244440   0.0000000), wk =   0.2500000
[...]
     1.0000   1.0000   1.0000   1.0000   1.0000   1.0000   1.0000   1.0000
     1.0000   1.0000   1.0000   1.0000   1.0000   1.0000   1.0000   1.0000
     1.0000   1.0000   1.0000   1.0000   1.0000   1.0000   1.0000   1.0000
     1.0000   1.0000   1.0000   1.0000   1.0000   1.0000   1.0000   1.0000
     1.0000   1.0000   1.0000   1.0000   1.0000   1.0000   1.0000   1.0000

[...]

          k = 0.0000-0.2244-0.1331 ( 62996 PWs)   bands (ev):

[...]

          k =-0.5000 0.0000 0.0000 ( 62996 PWs)   bands (ev):

[...]

          k =-0.5000-0.2244-0.1331 ( 63040 PWs)   bands (ev):

   -17.9089 -17.9089 -17.9089 -17.9089 -17.9055 -17.9055 -17.9055 -17.9055
   -17.8980 -17.8980 -17.8980 -17.8980 -17.8834 -17.8834 -17.8834 -17.8834
   -17.8788 -17.8788 -17.8788 -17.8788 -17.8734 -17.8734 -17.8734 -17.8734
    -8.6358  -8.6358  -8.6358  -8.6358  -8.4550  -8.4550  -8.4550  -8.4550
    -8.4261  -8.4261  -8.4261  -8.4261  -4.8357  -4.8357  -4.8357  -4.8357
    -4.6792  -4.6792  -4.6792  -4.6792  -4.6503  -4.6503  -4.6503  -4.6503
    -3.3416  -3.3416  -3.3416  -3.3416   0.0690   0.0690   0.0690   0.0690
     0.2982   0.2982   0.2982   0.2982   0.7326   0.7326   0.7326   0.7326
     1.2386   1.2386   1.2386   1.2386   1.5872   1.5872   1.5872   1.5872
     1.6816   1.6816   1.6816   1.6816   1.8267   1.8267   1.8267   1.8267
     1.9960   1.9960   1.9960   1.9960   2.7567   2.7567   2.7567   2.7567

     occupation numbers
     1.0000   1.0000   1.0000   1.0000   1.0000   1.0000   1.0000   1.0000
     1.0000   1.0000   1.0000   1.0000   1.0000   1.0000   1.0000   1.0000
     1.0000   1.0000   1.0000   1.0000   1.0000   1.0000   1.0000   1.0000
     1.0000   1.0000   1.0000   1.0000   1.0000   1.0000   1.0000   1.0000
     1.0000   1.0000   1.0000   1.0000   1.0000   1.0000   1.0000   1.0000
     1.0000   1.0000   1.0000   1.0000   1.0000   1.0000   1.0000   1.0000
     1.0000   1.0000   1.0000   1.0000   1.0000   1.0000   1.0000   1.0000
     1.0000   1.0000   1.0000   1.0000   1.0000   1.0000   1.0000   1.0000
     1.0000   1.0000   1.0000   1.0000   1.0000   1.0000   1.0000   1.0000
     1.0000   1.0000   1.0000   1.0000   1.0000   1.0000   1.0000   1.0000
     1.0000   1.0000   1.0000   1.0000   1.0000   1.0000   1.0000   1.0000

     highest occupied level (ev):     2.8121

!    total energy              =   -6438.75988486 Ry
     estimated scf accuracy    <       0.00000043 Ry

     The total energy is the sum of the following terms:
     one-electron contribution =    -468.64985248 Ry
     hartree contribution      =     316.30533621 Ry
     xc contribution           =    -462.52365768 Ry
     ewald contribution        =    -633.56960439 Ry
     one-center paw contrib.   =   -5190.32210652 Ry
      -> PAW hartree energy AE =       0.00000000 Ry
      -> PAW hartree energy PS =       0.00000000 Ry
      -> PAW xc energy AE      =       0.00000000 Ry
      -> PAW xc energy PS      =       0.00000000 Ry
      -> total E_H with PAW    =     316.30533621 Ry
      -> total E_XC with PAW   =    -462.52365768 Ry

     convergence has been achieved in  10 iterations

     Forces acting on atoms (cartesian axes, Ry/au):

     atom    1 type  1   force =     0.00000000   -0.00095580    0.00074970
     atom    2 type  1   force =     0.00000000    0.00095580   -0.00074970
     atom    3 type  1   force =     0.00000000   -0.00095580   -0.00074970
     atom    4 type  1   force =     0.00000000    0.00095580    0.00074970
     atom    5 type  2   force =     0.00000000   -0.00184002   -0.00122148
     atom    6 type  2   force =     0.00000000    0.00184002    0.00122148
     atom    7 type  2   force =     0.00000000   -0.00184002    0.00122148
     atom    8 type  2   force =     0.00000000    0.00184002   -0.00122148
     atom    9 type  3   force =     0.00000000   -0.00693693   -0.00594667
     atom   10 type  3   force =     0.00000000    0.00693693    0.00594667
     atom   11 type  3   force =     0.00000000   -0.00693693    0.00594667
     atom   12 type  3   force =     0.00000000    0.00693693   -0.00594667
     atom   13 type  3   force =     0.00000000   -0.00279409    0.00440196
     atom   14 type  3   force =     0.00000000    0.00279409   -0.00440196
     atom   15 type  3   force =     0.00000000   -0.00279409   -0.00440196
     atom   16 type  3   force =     0.00000000    0.00279409    0.00440196
     atom   17 type  3   force =     0.00000000    0.00672655   -0.00443085
     atom   18 type  3   force =     0.00000000   -0.00672655    0.00443085
     atom   19 type  3   force =     0.00000000    0.00672655    0.00443085
     atom   20 type  3   force =     0.00000000   -0.00672655   -0.00443085
     The non-local contrib.  to forces
     atom    1 type  1   force =     0.00000000    0.00225921   -0.00111141
     atom    2 type  1   force =     0.00000000   -0.00225921    0.00111141
     atom    3 type  1   force =     0.00000000    0.00225921    0.00111141
     atom    4 type  1   force =     0.00000000   -0.00225921   -0.00111141
     atom    5 type  2   force =     0.00000000   -0.08495654   -0.12684329
     atom    6 type  2   force =     0.00000000    0.08495654    0.12684329
     atom    7 type  2   force =     0.00000000   -0.08495654    0.12684329
     atom    8 type  2   force =     0.00000000    0.08495654   -0.12684329
     atom    9 type  3   force =     0.00000000   -0.04948897   -0.04878879
     atom   10 type  3   force =     0.00000000    0.04948897    0.04878879
     atom   11 type  3   force =    -0.00000000   -0.04948897    0.04878879
     atom   12 type  3   force =     0.00000000    0.04948897   -0.04878879
     atom   13 type  3   force =     0.00000000   -0.03344668    0.05682068
     atom   14 type  3   force =     0.00000000    0.03344668   -0.05682068
     atom   15 type  3   force =     0.00000000   -0.03344668   -0.05682068
     atom   16 type  3   force =     0.00000000    0.03344668    0.05682068
     atom   17 type  3   force =     0.00000000    0.05730702   -0.01810480
     atom   18 type  3   force =     0.00000000   -0.05730702    0.01810480
     atom   19 type  3   force =    -0.00000000    0.05730702    0.01810480
     atom   20 type  3   force =    -0.00000000   -0.05730702   -0.01810480
     The ionic contribution  to forces
     atom    1 type  1   force =    -0.00000000    0.02273773    0.42856976
     atom    2 type  1   force =    -0.00000000   -0.02273773   -0.42856976
     atom    3 type  1   force =    -0.00000000    0.02273773   -0.42856976
     atom    4 type  1   force =     0.00000000   -0.02273773    0.42856976
     atom    5 type  2   force =     0.00000000   -2.44382135   -1.60292983
     atom    6 type  2   force =     0.00000000    2.44382135    1.60292983
     atom    7 type  2   force =    -0.00000000   -2.44382135    1.60292983
     atom    8 type  2   force =     0.00000000    2.44382135   -1.60292983
     atom    9 type  3   force =    -0.00000000    3.00608891    5.13288893
     atom   10 type  3   force =     0.00000000   -3.00608891   -5.13288893
     atom   11 type  3   force =    -0.00000000    3.00608891   -5.13288893
     atom   12 type  3   force =    -0.00000000   -3.00608891    5.13288893
     atom   13 type  3   force =     0.00000000    2.02422849   -3.75281499
     atom   14 type  3   force =     0.00000000   -2.02422849    3.75281499
     atom   15 type  3   force =    -0.00000000    2.02422849    3.75281499
     atom   16 type  3   force =    -0.00000000   -2.02422849   -3.75281499
     atom   17 type  3   force =     0.00000000   -4.20564473    2.10270404
     atom   18 type  3   force =    -0.00000000    4.20564473   -2.10270404
     atom   19 type  3   force =     0.00000000   -4.20564473   -2.10270404
     atom   20 type  3   force =    -0.00000000    4.20564473    2.10270404
     The local contribution  to forces
     atom    1 type  1   force =    -0.00000000   -0.02586411   -0.42649871
     atom    2 type  1   force =     0.00000000    0.02586411    0.42649871
     atom    3 type  1   force =    -0.00000000   -0.02586411    0.42649871
     atom    4 type  1   force =     0.00000000    0.02586411   -0.42649871
     atom    5 type  2   force =    -0.00000000    2.52804186    1.72856757
     atom    6 type  2   force =    -0.00000000   -2.52804186   -1.72856757
     atom    7 type  2   force =    -0.00000000    2.52804186   -1.72856757
     atom    8 type  2   force =    -0.00000000   -2.52804186    1.72856757
     atom    9 type  3   force =     0.00000000   -2.96881937   -5.09557880
     atom   10 type  3   force =     0.00000000    2.96881937    5.09557880
     atom   11 type  3   force =    -0.00000000   -2.96881937    5.09557880
     atom   12 type  3   force =     0.00000000    2.96881937   -5.09557880
     atom   13 type  3   force =     0.00000000   -1.99697929    3.70608063
     atom   14 type  3   force =    -0.00000000    1.99697929   -3.70608063
     atom   15 type  3   force =     0.00000000   -1.99697929   -3.70608063
     atom   16 type  3   force =    -0.00000000    1.99697929    3.70608063
     atom   17 type  3   force =     0.00000000    4.16167629   -2.09115501
     atom   18 type  3   force =    -0.00000000   -4.16167629    2.09115501
     atom   19 type  3   force =     0.00000000    4.16167629    2.09115501
     atom   20 type  3   force =    -0.00000000   -4.16167629   -2.09115501
     The core correction contribution to forces
     atom    1 type  1   force =    -0.00000000   -0.00002120   -0.00004417
     atom    2 type  1   force =     0.00000000    0.00002120    0.00004417
     atom    3 type  1   force =    -0.00000000   -0.00002120    0.00004417
     atom    4 type  1   force =     0.00000000    0.00002120   -0.00004417
     atom    5 type  2   force =    -0.00000000    0.00015674   -0.00002355
     atom    6 type  2   force =    -0.00000000   -0.00015674    0.00002355
     atom    7 type  2   force =     0.00000000    0.00015674    0.00002355
     atom    8 type  2   force =    -0.00000000   -0.00015674   -0.00002355
     atom    9 type  3   force =     0.00000000    0.00520401    0.00541798
     atom   10 type  3   force =    -0.00000000   -0.00520401   -0.00541798
     atom   11 type  3   force =     0.00000000    0.00520401   -0.00541798
     atom   12 type  3   force =     0.00000000   -0.00520401    0.00541798
     atom   13 type  3   force =    -0.00000000    0.00331182   -0.00570662
     atom   14 type  3   force =     0.00000000   -0.00331182    0.00570662
     atom   15 type  3   force =    -0.00000000    0.00331182    0.00570662
     atom   16 type  3   force =     0.00000000   -0.00331182   -0.00570662
     atom   17 type  3   force =    -0.00000000   -0.00644816    0.00212415
     atom   18 type  3   force =     0.00000000    0.00644816   -0.00212415
     atom   19 type  3   force =    -0.00000000   -0.00644816   -0.00212415
     atom   20 type  3   force =     0.00000000    0.00644816    0.00212415
     The Hubbard contrib.    to forces
     atom    1 type  1   force =     0.00000000    0.00000000    0.00000000
     atom    2 type  1   force =     0.00000000    0.00000000    0.00000000
     atom    3 type  1   force =     0.00000000    0.00000000    0.00000000
     atom    4 type  1   force =     0.00000000    0.00000000    0.00000000
     atom    5 type  2   force =     0.00000000    0.00000000    0.00000000
     atom    6 type  2   force =     0.00000000    0.00000000    0.00000000
     atom    7 type  2   force =     0.00000000    0.00000000    0.00000000
     atom    8 type  2   force =     0.00000000    0.00000000    0.00000000
     atom    9 type  3   force =     0.00000000    0.00000000    0.00000000
     atom   10 type  3   force =     0.00000000    0.00000000    0.00000000
     atom   11 type  3   force =     0.00000000    0.00000000    0.00000000
     atom   12 type  3   force =     0.00000000    0.00000000    0.00000000
     atom   13 type  3   force =     0.00000000    0.00000000    0.00000000
     atom   14 type  3   force =     0.00000000    0.00000000    0.00000000
     atom   15 type  3   force =     0.00000000    0.00000000    0.00000000
     atom   16 type  3   force =     0.00000000    0.00000000    0.00000000
     atom   17 type  3   force =     0.00000000    0.00000000    0.00000000
     atom   18 type  3   force =     0.00000000    0.00000000    0.00000000
     atom   19 type  3   force =     0.00000000    0.00000000    0.00000000
     atom   20 type  3   force =     0.00000000    0.00000000    0.00000000
     The SCF correction term to forces
     atom    1 type  1   force =    -0.00000000   -0.00006743   -0.00016577
     atom    2 type  1   force =     0.00000000    0.00006743    0.00016577
     atom    3 type  1   force =     0.00000000   -0.00006743    0.00016577
     atom    4 type  1   force =    -0.00000000    0.00006743   -0.00016577
     atom    5 type  2   force =    -0.00000000   -0.00126072    0.00000763
     atom    6 type  2   force =     0.00000000    0.00126072   -0.00000763
     atom    7 type  2   force =     0.00000000   -0.00126072   -0.00000763
     atom    8 type  2   force =     0.00000000    0.00126072    0.00000763
     atom    9 type  3   force =     0.00000000    0.00007849    0.00011401
     atom   10 type  3   force =    -0.00000000   -0.00007849   -0.00011401
     atom   11 type  3   force =    -0.00000000    0.00007849   -0.00011401
     atom   12 type  3   force =    -0.00000000   -0.00007849    0.00011401
     atom   13 type  3   force =     0.00000000    0.00009156    0.00002225
     atom   14 type  3   force =     0.00000000   -0.00009156   -0.00002225
     atom   15 type  3   force =    -0.00000000    0.00009156   -0.00002225
     atom   16 type  3   force =     0.00000000   -0.00009156    0.00002225
     atom   17 type  3   force =     0.00000000   -0.00016386    0.00000076
     atom   18 type  3   force =    -0.00000000    0.00016386   -0.00000076
     atom   19 type  3   force =     0.00000000   -0.00016386   -0.00000076
     atom   20 type  3   force =    -0.00000000    0.00016386    0.00000076

     Total force =     0.026974     Total SCF correction =     0.002590

     Computing stress (Cartesian axis) and pressure

          total   stress  (Ry/bohr**3)                   (kbar)     P=      -13.26
  -0.00006346   0.00000000   0.00000000           -9.34        0.00        0.00
   0.00000000  -0.00010725   0.00000000            0.00      -15.78        0.00
   0.00000000   0.00000000  -0.00009963            0.00        0.00      -14.66

     kinetic stress (kbar)   5524.66      0.00      0.00
                                0.00   5524.89      0.00
                                0.00      0.00   5520.90

     local   stress (kbar)  -4567.15      0.00      0.00
                                0.00  -1923.50      0.00
                                0.00      0.00  -1031.19

     nonloc. stress (kbar)   1166.46      0.00      0.00
                                0.00   1161.80      0.00
                                0.00      0.00   1165.05

     hartree stress (kbar)   3403.48     -0.00     -0.00
                               -0.00   2185.08      0.00
                               -0.00      0.00   1715.39

     exc-cor stress (kbar)   5446.13      0.00      0.00
                                0.00   5446.02      0.00
                                0.00      0.00   5446.26

     corecor stress (kbar)  -7198.12     -0.00     -0.00
                               -0.00  -7197.90     -0.00
                               -0.00     -0.00  -7197.98

     ewald   stress (kbar)  -3784.80      0.00     -0.00
                                0.00  -5212.16      0.00
                               -0.00      0.00  -5633.09

     hubbard stress (kbar)      0.00      0.00      0.00
                                0.00      0.00      0.00
                                0.00      0.00      0.00

     DFT-D   stress (kbar)      0.00      0.00      0.00
                                0.00      0.00      0.00
                                0.00      0.00      0.00

     XDM     stress (kbar)      0.00      0.00      0.00
                                0.00      0.00      0.00
                                0.00      0.00      0.00

     dft-nl  stress (kbar)      0.00      0.00      0.00
                                0.00      0.00      0.00
                                0.00      0.00      0.00

     TS-vdW  stress (kbar)      0.00      0.00      0.00
                                0.00      0.00      0.00
                                0.00      0.00      0.00

     Writing output data file ./CsSnI3.save/

     General routines

     Parallel routines

     PAW routines

   This run was terminated on:  21:53:22  24Jan2021

   JOB DONE.