     Program PWSCF v.6.4.1 starts on 25Jan2021 at 10:17: 6

     R & G space division:  proc/nbgrp/npool/nimage =      24
     Waiting for input...
     Reading input from standard input

     Current dimensions of program PWSCF are:
     Max number of different atomic species (ntypx) = 10
     Max number of k-points (npk) =  40000
     Max angular momentum in pseudopotentials (lmaxx) =  3
               file Cs.rel-pbesol-spn-kjpaw_psl.1.0.0.UPF: wavefunction(s)  5S 6S renormalized
               file I.rel-pbesol-n-kjpaw_psl.1.0.0.UPF: wavefunction(s)  5S renormalized

     Found symmetry operation: I + (  0.0000 -0.5000 -0.5000)
     This is a supercell, fractional translations are disabled

     Title:
     CsIsalt

     bravais-lattice index     =            1
     lattice parameter (alat)  =       8.8160  a.u.
     unit-cell volume          =     685.1896 (a.u.)^3
     number of atoms/cell      =            8
     number of atomic types    =            2
     number of electrons       =        64.00
     number of Kohn-Sham states=           64
     kinetic-energy cutoff     =      80.0000  Ry
     charge density cutoff     =     480.0000  Ry
     convergence threshold     =      1.0E-06
     mixing beta               =       0.3500
     number of iterations used =            8  plain     mixing
     Exchange-correlation      = SLA PW PSX PSC ( 1  4 10  8 0 0)
     Non magnetic calculation with spin-orbit

     celldm(1)=   8.815973  celldm(2)=   0.000000  celldm(3)=   0.000000
     celldm(4)=   0.000000  celldm(5)=   0.000000  celldm(6)=   0.000000

     crystal axes: (cart. coord. in units of alat)
               a(1) = (   1.000000   0.000000   0.000000 )
               a(2) = (   0.000000   1.000000   0.000000 )
               a(3) = (   0.000000   0.000000   1.000000 )

     reciprocal axes: (cart. coord. in units 2 pi/alat)
               b(1) = (  1.000000  0.000000  0.000000 )
               b(2) = (  0.000000  1.000000  0.000000 )
               b(3) = (  0.000000  0.000000  1.000000 )

     PseudoPot. # 1 for Cs read from file:
     /marconi_scratch/userexternal/cmalosso/degironcoli/pseudo/Cs.rel-pbesol-spn-kjpaw_psl.1.0.0.UPF
     MD5 check sum: 2adfb289dd462649b099d7edbec69378
     Pseudo is Projector augmented-wave + core cor, Zval =  9.0
     Generated using "atomic" code by A. Dal Corso v.6.4.1
     Shape of augmentation charge: PSQ
     Using radial grid of 1251 points, 15 beta functions with:
                l(1) =   0
                l(2) =   0
                l(3) =   0
                l(4) =   1
                l(5) =   1
                l(6) =   1
                l(7) =   1
                l(8) =   2
                l(9) =   2
               l(10) =   2
               l(11) =   2
               l(12) =   3
               l(13) =   3
               l(14) =   3
               l(15) =   3
     Q(r) pseudized with 0 coefficients

     PseudoPot. # 2 for I  read from file:
     /marconi_scratch/userexternal/cmalosso/degironcoli/pseudo/I.rel-pbesol-n-kjpaw_psl.1.0.0.UPF
     MD5 check sum: 4478c427bd443f303eca1937a163b991
     Pseudo is Projector augmented-wave + core cor, Zval =  7.0
     Generated using "atomic" code by A. Dal Corso v.6.3
     Shape of augmentation charge: PSQ
     Using radial grid of 1247 points, 10 beta functions with:
                l(1) =   0
                l(2) =   0
                l(3) =   1
                l(4) =   1
                l(5) =   1
                l(6) =   1
                l(7) =   2
                l(8) =   2
                l(9) =   2
               l(10) =   2
     Q(r) pseudized with 0 coefficients

     atomic species   valence    mass     pseudopotential
        Cs             9.00   132.90000     Cs( 1.00)
        I              7.00   126.90000     I ( 1.00)

     48 Sym. Ops., with inversion, found

                                    s                        frac. trans.

      isym =  1     identity

 cryst.   s( 1) = (     1          0          0      )
                  (     0          1          0      )
                  (     0          0          1      )

 cart.    s( 1) = (  1.0000000  0.0000000  0.0000000 )
                  (  0.0000000  1.0000000  0.0000000 )
                  (  0.0000000  0.0000000  1.0000000 )

      isym =  2     180 deg rotation - cart. axis [0,0,1]

[...]

 cryst.   s( 9) = (     0          0          1      )
                  (     0         -1          0      )
                  (     1          0          0      )

 cart.    s( 9) = (  0.0000000  0.0000000  1.0000000 )
                  (  0.0000000 -1.0000000  0.0000000 )
                  (  1.0000000  0.0000000  0.0000000 )

[...]

 cryst.   s(10) = (     0          0         -1      )
                  (     0         -1          0      )
                  (    -1          0          0      )

 cart.    s(10) = (  0.0000000  0.0000000 -1.0000000 )
                  (  0.0000000 -1.0000000  0.0000000 )
                  ( -1.0000000  0.0000000  0.0000000 )

[...]

      isym = 24     120 deg rotation - cart. axis [-1,-1,1]

[...]

      isym = 25     inversion

[...]

      isym = 26     inv. 180 deg rotation - cart. axis [0,0,1]

[...]

      isym = 48     inv. 120 deg rotation - cart. axis [-1,-1,1]

 cryst.   s(48) = (     0         -1          0      )
                  (     0          0          1      )
                  (     1          0          0      )

 cart.    s(48) = (  0.0000000  0.0000000  1.0000000 )
                  ( -1.0000000  0.0000000  0.0000000 )
                  (  0.0000000  1.0000000  0.0000000 )

     double point group O_h (m-3m)
     there are 16 classes and  6 irreducible representations
     the character table:

       E     -E    8C3   -8C3   3C2  6C4   -6C4   6C2' i     -i    8S6   -8S6
                               -3C2              -6C2'
G_6+   2.00 -2.00  1.00 -1.00  0.00  1.41 -1.41  0.00  2.00 -2.00  1.00 -1.00
G_7+   2.00 -2.00  1.00 -1.00  0.00 -1.41  1.41  0.00  2.00 -2.00  1.00 -1.00
G_8+   4.00 -4.00 -1.00  1.00  0.00  0.00  0.00  0.00  4.00 -4.00 -1.00  1.00
G_6-   2.00 -2.00  1.00 -1.00  0.00  1.41 -1.41  0.00 -2.00  2.00 -1.00  1.00
G_7-   2.00 -2.00  1.00 -1.00  0.00 -1.41  1.41  0.00 -2.00  2.00 -1.00  1.00
G_8-   4.00 -4.00 -1.00  1.00  0.00  0.00  0.00  0.00 -4.00  4.00  1.00 -1.00

        3s_h 6S4   -6S4   6s_d
       -3s_h             -6s_d
G_6+   0.00  1.41 -1.41  0.00
G_7+   0.00 -1.41  1.41  0.00
G_8+   0.00  0.00  0.00  0.00
G_6-   0.00 -1.41  1.41  0.00
G_7-   0.00  1.41 -1.41  0.00
G_8-   0.00  0.00  0.00  0.00

     the symmetry operations in each class and the name of the first element:

     E             1
          identity
     -E           -1
          identity E
     8C3          17   19   20   18   24   21   22   23
          120 deg rotation - cart. axis [-1,-1,-1]
     -8C3        -17  -19  -20  -18  -24  -21  -22  -23
          120 deg rotation - cart. axis [-1,-1,-1] E
      3C2 -3C2     2   -2    4   -4    3   -3
          180 deg rotation - cart. axis [0,0,1]
     6C4           7    8   15   16   12   11
           90 deg rotation - cart. axis [0,0,-1]
     -6C4         -7   -8  -15  -16  -12  -11
           90 deg rotation - cart. axis [0,0,-1] E
      6C2'-6C2'    5   -5   -6    6   14  -13  -14   13   10   -9  -10    9
          180 deg rotation - cart. axis [1,1,0]
     i            25
          inversion
     -i          -25
          inversion E
     8S6          41   43   44   42   48   45   46   47
          inv. 120 deg rotation - cart. axis [-1,-1,-1]
     -8S6        -41  -43  -44  -42  -48  -45  -46  -47
          inv. 120 deg rotation - cart. axis [-1,-1,-1] E
      3s_h-3s_h   26  -26   28  -28   27  -27
          inv. 180 deg rotation - cart. axis [0,0,1]
     6S4          31   32   39   40   36   35
          inv.  90 deg rotation - cart. axis [0,0,-1]
     -6S4        -31  -32  -39  -40  -36  -35
          inv.  90 deg rotation - cart. axis [0,0,-1] E
      6s_d-6s_d   29  -29  -30   30   38  -37  -38   37   34  -33  -34   33
          inv. 180 deg rotation - cart. axis [1,1,0]

   Cartesian axes

     site n.     atom                  positions (alat units)
         1           Cs  tau(   1) = (   0.0000000   0.0000000   0.0000000  )
         2           Cs  tau(   2) = (   0.0000000   0.5000000   0.5000000  )
         3           Cs  tau(   3) = (   0.5000000   0.0000000   0.5000000  )
         4           Cs  tau(   4) = (   0.5000000   0.5000000   0.0000000  )
         5           I   tau(   5) = (   0.5000000   0.0000000   0.0000000  )
         6           I   tau(   6) = (   0.5000000   0.5000000   0.5000000  )
         7           I   tau(   7) = (   0.0000000   0.0000000   0.5000000  )
         8           I   tau(   8) = (   0.0000000   0.5000000   0.0000000  )

   Crystallographic axes

     site n.     atom                  positions (cryst. coord.)
         1           Cs  tau(   1) = (  0.0000000  0.0000000  0.0000000  )
         2           Cs  tau(   2) = (  0.0000000  0.5000000  0.5000000  )
         3           Cs  tau(   3) = (  0.5000000  0.0000000  0.5000000  )
         4           Cs  tau(   4) = (  0.5000000  0.5000000  0.0000000  )
         5           I   tau(   5) = (  0.5000000  0.0000000  0.0000000  )
         6           I   tau(   6) = (  0.5000000  0.5000000  0.5000000  )
         7           I   tau(   7) = (  0.0000000  0.0000000  0.5000000  )
         8           I   tau(   8) = (  0.0000000  0.5000000  0.0000000  )

     number of k points=    56
                       cart. coord. in units 2pi/alat
        k(    1) = (   0.0454545   0.0454545   0.0454545), wk =   0.0060105
        k(    2) = (   0.0454545   0.0454545   0.1363636), wk =   0.0180316
        k(    3) = (   0.0454545   0.0454545   0.2272727), wk =   0.0180316
        k(    4) = (   0.0454545   0.0454545   0.3181818), wk =   0.0180316
        k(    5) = (   0.0454545   0.0454545   0.4090909), wk =   0.0180316
        k(    6) = (   0.0454545   0.0454545  -0.5000000), wk =   0.0090158
        k(    7) = (   0.0454545   0.1363636   0.1363636), wk =   0.0180316
        k(    8) = (   0.0454545   0.1363636   0.2272727), wk =   0.0360631
        k(    9) = (   0.0454545   0.1363636   0.3181818), wk =   0.0360631
        k(   10) = (   0.0454545   0.1363636   0.4090909), wk =   0.0360631
        k(   11) = (   0.0454545   0.1363636  -0.5000000), wk =   0.0180316
        k(   12) = (   0.0454545   0.2272727   0.2272727), wk =   0.0180316
        k(   13) = (   0.0454545   0.2272727   0.3181818), wk =   0.0360631
        k(   14) = (   0.0454545   0.2272727   0.4090909), wk =   0.0360631
        k(   15) = (   0.0454545   0.2272727  -0.5000000), wk =   0.0180316
        k(   16) = (   0.0454545   0.3181818   0.3181818), wk =   0.0180316
        k(   17) = (   0.0454545   0.3181818   0.4090909), wk =   0.0360631
        k(   18) = (   0.0454545   0.3181818  -0.5000000), wk =   0.0180316
        k(   19) = (   0.0454545   0.4090909   0.4090909), wk =   0.0180316
        k(   20) = (   0.0454545   0.4090909  -0.5000000), wk =   0.0180316
        k(   21) = (   0.0454545  -0.5000000  -0.5000000), wk =   0.0045079
[...]
        k(   28) = (   0.1363636   0.2272727   0.3181818), wk =   0.0360631
        k(   29) = (   0.1363636   0.2272727   0.4090909), wk =   0.0360631
        k(   30) = (   0.1363636   0.2272727  -0.5000000), wk =   0.0180316
        k(   31) = (   0.1363636   0.3181818   0.3181818), wk =   0.0180316
        k(   32) = (   0.1363636   0.3181818   0.4090909), wk =   0.0360631
        k(   33) = (   0.1363636   0.3181818  -0.5000000), wk =   0.0180316
        k(   34) = (   0.1363636   0.4090909   0.4090909), wk =   0.0180316
        k(   35) = (   0.1363636   0.4090909  -0.5000000), wk =   0.0180316
        k(   36) = (   0.1363636  -0.5000000  -0.5000000), wk =   0.0045079
        k(   37) = (   0.2272727   0.2272727   0.2272727), wk =   0.0060105
        k(   38) = (   0.2272727   0.2272727   0.3181818), wk =   0.0180316
        k(   39) = (   0.2272727   0.2272727   0.4090909), wk =   0.0180316
        k(   40) = (   0.2272727   0.2272727  -0.5000000), wk =   0.0090158
        k(   41) = (   0.2272727   0.3181818   0.3181818), wk =   0.0180316
        k(   42) = (   0.2272727   0.3181818   0.4090909), wk =   0.0360631
        k(   43) = (   0.2272727   0.3181818  -0.5000000), wk =   0.0180316
        k(   44) = (   0.2272727   0.4090909   0.4090909), wk =   0.0180316
        k(   45) = (   0.2272727   0.4090909  -0.5000000), wk =   0.0180316
        k(   46) = (   0.2272727  -0.5000000  -0.5000000), wk =   0.0045079
        k(   47) = (   0.3181818   0.3181818   0.3181818), wk =   0.0060105
        k(   48) = (   0.3181818   0.3181818   0.4090909), wk =   0.0180316
        k(   49) = (   0.3181818   0.3181818  -0.5000000), wk =   0.0090158
        k(   50) = (   0.3181818   0.4090909   0.4090909), wk =   0.0180316
        k(   51) = (   0.3181818   0.4090909  -0.5000000), wk =   0.0180316
        k(   52) = (   0.3181818  -0.5000000  -0.5000000), wk =   0.0045079
        k(   53) = (   0.4090909   0.4090909   0.4090909), wk =   0.0060105
        k(   54) = (   0.4090909   0.4090909  -0.5000000), wk =   0.0090158
        k(   55) = (   0.4090909  -0.5000000  -0.5000000), wk =   0.0045079
        k(   56) = (  -0.5000000  -0.5000000  -0.5000000), wk =   0.0007513

                       cryst. coord.
        k(    1) = (   0.0454545   0.0454545   0.0454545), wk =   0.0060105
        k(    2) = (   0.0454545   0.0454545   0.1363636), wk =   0.0180316
        k(    3) = (   0.0454545   0.0454545   0.2272727), wk =   0.0180316
        k(    4) = (   0.0454545   0.0454545   0.3181818), wk =   0.0180316
        k(    5) = (   0.0454545   0.0454545   0.4090909), wk =   0.0180316
        k(    6) = (   0.0454545   0.0454545  -0.5000000), wk =   0.0090158
        k(    7) = (   0.0454545   0.1363636   0.1363636), wk =   0.0180316
        k(    8) = (   0.0454545   0.1363636   0.2272727), wk =   0.0360631
        k(    9) = (   0.0454545   0.1363636   0.3181818), wk =   0.0360631
        k(   10) = (   0.0454545   0.1363636   0.4090909), wk =   0.0360631
        k(   11) = (   0.0454545   0.1363636  -0.5000000), wk =   0.0180316
        k(   12) = (   0.0454545   0.2272727   0.2272727), wk =   0.0180316
        k(   13) = (   0.0454545   0.2272727   0.3181818), wk =   0.0360631
        k(   14) = (   0.0454545   0.2272727   0.4090909), wk =   0.0360631
        k(   15) = (   0.0454545   0.2272727  -0.5000000), wk =   0.0180316
        k(   16) = (   0.0454545   0.3181818   0.3181818), wk =   0.0180316
        k(   17) = (   0.0454545   0.3181818   0.4090909), wk =   0.0360631
        k(   18) = (   0.0454545   0.3181818  -0.5000000), wk =   0.0180316
        k(   19) = (   0.0454545   0.4090909   0.4090909), wk =   0.0180316
        k(   20) = (   0.0454545   0.4090909  -0.5000000), wk =   0.0180316
        k(   21) = (   0.0454545  -0.5000000  -0.5000000), wk =   0.0045079
        k(   22) = (   0.1363636   0.1363636   0.1363636), wk =   0.0060105
        k(   23) = (   0.1363636   0.1363636   0.2272727), wk =   0.0180316
        k(   24) = (   0.1363636   0.1363636   0.3181818), wk =   0.0180316
        k(   25) = (   0.1363636   0.1363636   0.4090909), wk =   0.0180316
        k(   26) = (   0.1363636   0.1363636  -0.5000000), wk =   0.0090158
        k(   27) = (   0.1363636   0.2272727   0.2272727), wk =   0.0180316
        k(   28) = (   0.1363636   0.2272727   0.3181818), wk =   0.0360631
        k(   29) = (   0.1363636   0.2272727   0.4090909), wk =   0.0360631
        k(   30) = (   0.1363636   0.2272727  -0.5000000), wk =   0.0180316
        k(   31) = (   0.1363636   0.3181818   0.3181818), wk =   0.0180316
        k(   32) = (   0.1363636   0.3181818   0.4090909), wk =   0.0360631
        k(   33) = (   0.1363636   0.3181818  -0.5000000), wk =   0.0180316
        k(   34) = (   0.1363636   0.4090909   0.4090909), wk =   0.0180316
        k(   35) = (   0.1363636   0.4090909  -0.5000000), wk =   0.0180316
        k(   36) = (   0.1363636  -0.5000000  -0.5000000), wk =   0.0045079
        k(   37) = (   0.2272727   0.2272727   0.2272727), wk =   0.0060105
        k(   38) = (   0.2272727   0.2272727   0.3181818), wk =   0.0180316
        k(   39) = (   0.2272727   0.2272727   0.4090909), wk =   0.0180316
        k(   40) = (   0.2272727   0.2272727  -0.5000000), wk =   0.0090158
        k(   41) = (   0.2272727   0.3181818   0.3181818), wk =   0.0180316
        k(   42) = (   0.2272727   0.3181818   0.4090909), wk =   0.0360631
        k(   43) = (   0.2272727   0.3181818  -0.5000000), wk =   0.0180316
        k(   44) = (   0.2272727   0.4090909   0.4090909), wk =   0.0180316
        k(   45) = (   0.2272727   0.4090909  -0.5000000), wk =   0.0180316
        k(   46) = (   0.2272727  -0.5000000  -0.5000000), wk =   0.0045079
        k(   47) = (   0.3181818   0.3181818   0.3181818), wk =   0.0060105
        k(   48) = (   0.3181818   0.3181818   0.4090909), wk =   0.0180316
        k(   49) = (   0.3181818   0.3181818  -0.5000000), wk =   0.0090158
        k(   50) = (   0.3181818   0.4090909   0.4090909), wk =   0.0180316
        k(   51) = (   0.3181818   0.4090909  -0.5000000), wk =   0.0180316
        k(   52) = (   0.3181818  -0.5000000  -0.5000000), wk =   0.0045079
        k(   53) = (   0.4090909   0.4090909   0.4090909), wk =   0.0060105
        k(   54) = (   0.4090909   0.4090909  -0.5000000), wk =   0.0090158
        k(   55) = (   0.4090909  -0.5000000  -0.5000000), wk =   0.0045079
        k(   56) = (  -0.5000000  -0.5000000  -0.5000000), wk =   0.0007513

     Initial potential from superposition of free atoms

     starting charge   63.84620, renormalised to   64.00000
     Starting wfcs are   72 randomized atomic wfcs
     Checking if some PAW data can be deallocated...

     Self-consistent Calculation

     iteration #  1     ecut=    80.00 Ry     beta= 0.35
     Davidson diagonalization with overlap
     ethr =  1.00E-02,  avg # of iterations =  6.2

     Threshold (ethr) on eigenvalues was too large:
     Diagonalizing with lowered threshold

     Davidson diagonalization with overlap
     ethr =  1.55E-04,  avg # of iterations =  8.9

     total energy              =   -3131.15946644 Ry
     Harris-Foulkes estimate   =   -3131.19087347 Ry
     estimated scf accuracy    <       0.12061247 Ry

[...]

     iteration #  3     ecut=    80.00 Ry     beta= 0.35
     Davidson diagonalization with overlap
     c_bands:  1 eigenvalues not converged
     ethr =  6.49E-05,  avg # of iterations =  5.1

[...]

     WARNING: integrated charge=    64.01060459, expected=    64.00000000

[...]

     iteration # 11     ecut=    80.00 Ry     beta= 0.35
     Davidson diagonalization with overlap
     ethr =  7.41E-07,  avg # of iterations =  2.1

[...]

     WARNING: integrated charge=    63.99994403, expected=    64.00000000

     total energy              =   -3131.16436883 Ry
     Harris-Foulkes estimate   =   -3131.16436935 Ry
     estimated scf accuracy    <       0.00000168 Ry

     iteration # 19     ecut=    80.00 Ry     beta= 0.35
     Davidson diagonalization with overlap
     c_bands:  2 eigenvalues not converged
     ethr =  2.11E-09,  avg # of iterations =  7.4

     End of self-consistent calculation

          k = 0.0455 0.0455 0.0455 (  8295 PWs)   bands (ev):

    -1.8977  -1.8977   2.5924   2.5924   2.5924   2.5924   2.5946   2.5946
     8.7969   8.7969   8.7969   8.7969   8.7971   8.7971  10.8546  10.8546
    10.8546  10.8546  10.8555  10.8555  12.3051  12.3051  12.3054  12.3054
    12.3060  12.3060  13.2509  13.2509  13.2515  13.2515  13.2518  13.2518
    14.6623  14.6623  16.1824  16.1824  16.6293  16.6293  18.8895  18.8895
    22.2959  22.2959  22.2959  22.2959  22.2959  22.2959  25.2054  25.2054
    26.5493  26.5493  26.6012  26.6012  26.8498  26.8498  26.8844  26.8844
    27.0389  27.0389  29.6169  29.6169  29.6170  29.6170  29.6177  29.6177

     occupation numbers
     1.0000   1.0000   1.0000   1.0000   1.0000   1.0000   1.0000   1.0000
     1.0000   1.0000   1.0000   1.0000   1.0000   1.0000   1.0000   1.0000
     1.0000   1.0000   1.0000   1.0000   1.0000   1.0000   1.0000   1.0000
     1.0000   1.0000   1.0000   1.0000   1.0000   1.0000   1.0000   1.0000
     1.0000   1.0000   1.0000   1.0000   1.0000   1.0000   1.0000   1.0000
     1.0000   1.0000   1.0000   1.0000   1.0000   1.0000   1.0000   1.0000
     1.0000   1.0000   1.0000   1.0000   1.0000   1.0000   1.0000   1.0000
     1.0000   1.0000   1.0000   1.0000   1.0000   1.0000   1.0000   1.0000

[...]

          k = 0.4091-0.5000-0.5000 (  8268 PWs)   bands (ev):

[...]

          k =-0.5000-0.5000-0.5000 (  8240 PWs)   bands (ev):

     1.6440   1.6440   1.6440   1.6440   1.6440   1.6440   1.6468   1.6468
     5.3042   5.3042   5.3042   5.3042   5.3043   5.3043   5.3043   5.3043
    16.1508  16.1508  16.1511  16.1511  16.1511  16.1511  16.1527  16.1527
    17.2772  17.2772  17.2772  17.2772  17.2786  17.2786  17.2786  17.2786
    19.7100  19.7100  19.7106  19.7106  19.7107  19.7107  19.7107  19.7107
    20.4893  20.4893  20.4893  20.4893  20.4900  20.4900  20.4900  20.4900
    21.5467  21.5467  21.5467  21.5467  21.5467  21.5467  21.5472  21.5472
    22.9511  22.9511  22.9512  22.9512  22.9512  22.9512  22.9512  22.9512

     occupation numbers
     1.0000   1.0000   1.0000   1.0000   1.0000   1.0000   1.0000   1.0000
     1.0000   1.0000   1.0000   1.0000   1.0000   1.0000   1.0000   1.0000
     1.0000   1.0000   1.0000   1.0000   1.0000   1.0000   1.0000   1.0000
     1.0000   1.0000   1.0000   1.0000   1.0000   1.0000   1.0000   1.0000
     1.0000   1.0000   1.0000   1.0000   1.0000   1.0000   1.0000   1.0000
     1.0000   1.0000   1.0000   1.0000   1.0000   1.0000   1.0000   1.0000
     1.0000   1.0000   1.0000   1.0000   1.0000   1.0000   1.0000   1.0000
     1.0000   1.0000   1.0000   1.0000   1.0000   1.0000   1.0000   1.0000

     highest occupied level (ev):    29.6177

!    total energy              =   -3131.16436904 Ry
     Harris-Foulkes estimate   =   -3131.16436930 Ry
     estimated scf accuracy    <       0.00000027 Ry

     total all-electron energy =   -119218.220497 Ry

     The total energy is the sum of the following terms:

     one-electron contribution =     153.67266169 Ry
     hartree contribution      =       5.40940772 Ry
     xc contribution           =    -157.40507314 Ry
     ewald contribution        =    -332.73169529 Ry
     one-center paw contrib.   =   -2800.10967003 Ry
      -> PAW hartree energy AE =      42.87612023 Ry
      -> PAW hartree energy PS =     -42.76325304 Ry
      -> PAW xc energy AE      =    -381.08155540 Ry
      -> PAW xc energy PS      =      22.83672109 Ry
      -> total E_H with PAW    =       5.52227491 Ry
      -> total E_XC with PAW   =    -515.64990745 Ry

     convergence has been achieved in  19 iterations

     Forces acting on atoms (cartesian axes, Ry/au):

     atom    1 type  1   force =     0.00000000   -0.00000000    0.00000000
     atom    2 type  1   force =     0.00000000    0.00000000    0.00000000
     atom    3 type  1   force =     0.00000000    0.00000000    0.00000000
     atom    4 type  1   force =     0.00000000    0.00000000   -0.00000000
     atom    5 type  2   force =     0.00000000    0.00000000   -0.00000000
     atom    6 type  2   force =     0.00000000    0.00000000    0.00000000
     atom    7 type  2   force =     0.00000000    0.00000000   -0.00000000
     atom    8 type  2   force =     0.00000000    0.00000000    0.00000000
     The non-local contrib.  to forces
     atom    1 type  1   force =     0.00000000    0.00000000    0.00000000
     atom    2 type  1   force =     0.00000000    0.00000000   -0.00000000
     atom    3 type  1   force =     0.00000000    0.00000000    0.00000000
     atom    4 type  1   force =     0.00000000    0.00000000    0.00000000
     atom    5 type  2   force =     0.00000000   -0.00000000    0.00000000
     atom    6 type  2   force =     0.00000000   -0.00000000    0.00000000
     atom    7 type  2   force =     0.00000000   -0.00000000    0.00000000
     atom    8 type  2   force =     0.00000000    0.00000000    0.00000000
     The ionic contribution  to forces
     atom    1 type  1   force =    -0.00000000   -0.00000000   -0.00000000
     atom    2 type  1   force =    -0.00000000    0.00000000    0.00000000
     atom    3 type  1   force =     0.00000000   -0.00000000    0.00000000
     atom    4 type  1   force =     0.00000000    0.00000000   -0.00000000
     atom    5 type  2   force =     0.00000000   -0.00000000   -0.00000000
     atom    6 type  2   force =     0.00000000    0.00000000    0.00000000
     atom    7 type  2   force =    -0.00000000   -0.00000000    0.00000000
     atom    8 type  2   force =    -0.00000000    0.00000000   -0.00000000
     The local contribution  to forces
     atom    1 type  1   force =    -0.00000000   -0.00000000   -0.00000000
     atom    2 type  1   force =    -0.00000000    0.00000000    0.00000000
     atom    3 type  1   force =     0.00000000   -0.00000000    0.00000000
     atom    4 type  1   force =     0.00000000    0.00000000   -0.00000000
     atom    5 type  2   force =     0.00000000   -0.00000000   -0.00000000
     atom    6 type  2   force =     0.00000000    0.00000000    0.00000000
     atom    7 type  2   force =    -0.00000000   -0.00000000    0.00000000
     atom    8 type  2   force =    -0.00000000    0.00000000   -0.00000000
     The core correction contribution to forces
     atom    1 type  1   force =    -0.00000000    0.00000000    0.00000000
     atom    2 type  1   force =    -0.00000000   -0.00000000    0.00000000
     atom    3 type  1   force =    -0.00000000   -0.00000000   -0.00000000
     atom    4 type  1   force =    -0.00000000   -0.00000000    0.00000000
     atom    5 type  2   force =    -0.00000000    0.00000000    0.00000000
     atom    6 type  2   force =    -0.00000000   -0.00000000    0.00000000
     atom    7 type  2   force =    -0.00000000   -0.00000000    0.00000000
     atom    8 type  2   force =    -0.00000000   -0.00000000    0.00000000
     The Hubbard contrib.    to forces
     atom    1 type  1   force =     0.00000000    0.00000000    0.00000000
     atom    2 type  1   force =     0.00000000    0.00000000    0.00000000
     atom    3 type  1   force =     0.00000000    0.00000000    0.00000000
     atom    4 type  1   force =     0.00000000    0.00000000    0.00000000
     atom    5 type  2   force =     0.00000000    0.00000000    0.00000000
     atom    6 type  2   force =     0.00000000    0.00000000    0.00000000
     atom    7 type  2   force =     0.00000000    0.00000000    0.00000000
     atom    8 type  2   force =     0.00000000    0.00000000    0.00000000
     The SCF correction term to forces
     atom    1 type  1   force =    -0.00000000    0.00000000   -0.00000000
     atom    2 type  1   force =    -0.00000000   -0.00000000   -0.00000000
     atom    3 type  1   force =     0.00000000   -0.00000000   -0.00000000
     atom    4 type  1   force =     0.00000000    0.00000000   -0.00000000
     atom    5 type  2   force =    -0.00000000   -0.00000000    0.00000000
     atom    6 type  2   force =     0.00000000   -0.00000000    0.00000000
     atom    7 type  2   force =    -0.00000000    0.00000000    0.00000000
     atom    8 type  2   force =    -0.00000000   -0.00000000    0.00000000

     Total force =     0.000000     Total SCF correction =     0.000000

     Computing stress (Cartesian axis) and pressure

     Message from routine stres:
     noncollinear stress + GGA not implemented

     Writing output data file CsIsalt.save/

     General routines

     Parallel routines

     PAW routines

   This run was terminated on:  11:26:43  25Jan2021

   JOB DONE.